Sr64 Ti64 O192
1.0
15.6329136064995993 0.0000000000000000 0.0000000000000000
0.0000000000000000 15.6329136064995993 0.0000000000000000
0.0000000000000000 0.0000000000000000 15.6329136064995993
Sr Ti O
64 64 192
cartesian
15.6207791219542464 0.0272927009988755 0.0028040608061509 Sr
0.0229670002345463 15.6140502529719978 3.9123138384337404 Sr
0.0108096979948480 15.6238553160211069 7.7899785517428075 Sr
15.6197331872698388 15.6142463080784086 11.7052479077739715 Sr
0.0274485464714266 3.8991268508023063 0.0079836751706016 Sr
15.6221091049179801 3.8991214332703477 3.8817647308107066 Sr
0.0109328918832956 3.9122949855952109 7.8440961731753331 Sr
0.0126683447246312 3.8853664789193827 11.7394108808233550 Sr
15.6088133250459151 7.8228153629479715 0.0166956626828035 Sr
15.6045380287165862 7.8142944663209954 3.8987336196639224 Sr
15.6168867142975110 7.8261604412352161 7.7930265207890477 Sr
15.6109315298762041 7.7986071511544637 11.7147767121841451 Sr
15.6294132272083726 11.7373520694827036 15.6059451455531519 Sr
0.0143870029247313 11.7239020643441094 3.8819148910694241 Sr
0.0150895232011112 11.7476446835365920 7.8285053977378389 Sr
15.6179489044559361 11.7506860771001378 11.7247962735957234 Sr
3.9331148122240145 15.6178441912584844 0.0073197876870255 Sr
3.9178963988839626 15.6072780035321568 3.9204491090305473 Sr
3.9152235390822758 15.6066074416977472 7.8290684544252072 Sr
3.8882098502010827 0.0215446132039018 11.7306086532610916 Sr
3.8961431220805234 3.9336713296907226 0.0103248936929955 Sr
3.8865855900721229 3.8893922663564613 3.8994654845169912 Sr
3.9179686188607379 3.8978495848067394 7.7900483135229361 Sr
3.9188540495746915 3.9084940861049300 11.6966312387129570 Sr
3.9193610746668717 7.7888564563898557 0.0037794767033900 Sr
3.9283379722142096 7.8171858077975864 3.8859781494222196 Sr
3.8783522051868053 7.8186188433061270 7.8148019711775873 Sr
3.8852652194029136 7.8357257185251790 11.7235014961478310 Sr
3.8989445058220897 11.7494416076963581 0.0141749708308103 Sr
3.8912485192004631 11.7185819515957306 3.9321957521723654 Sr
3.9223039846234173 11.7463039431061436 7.8317704612233880 Sr
3.9122712017782462 11.7449837738933134 11.7464021075709084 Sr
7.8081976198057479 15.6044005736719260 0.0043350718339545 Sr
7.8269226968253660 0.0222661016616134 3.9253948161736507 Sr
7.8026000081072651 0.0230453746580970 7.8297571767500358 Sr
7.8129338010236067 15.6111162336858929 11.7043760199148181 Sr
7.8232361102443235 3.9003676425753726 0.0281469263657554 Sr
7.8095127830953688 3.9274803564807876 3.8862934336896204 Sr
7.7975513718569811 3.9276517803112228 7.8035992364403581 Sr
7.8238921737733449 3.9360984392534499 11.7329299770219890 Sr
7.8019708334581521 7.8071651180767576 0.0245727748909367 Sr
7.8133357703587176 7.7885087800759445 3.8977800929403985 Sr
7.8285279520937205 7.7905471247337150 7.8073476910657726 Sr
7.8114957874669670 7.7971955898247787 11.7471439221087355 Sr
7.8266495133352842 11.7073643718552205 0.0222732441423464 Sr
7.8271637413627202 11.7211248119210563 3.9360256151230488 Sr
7.7948609664549204 11.7435506054557788 7.8252724991409037 Sr
7.8143064925580159 11.7522697757403058 11.7362812220396169 Sr
11.7135153271401062 15.6230679648550712 0.0260441389184164 Sr
11.7386193792620244 0.0059932822980521 3.8823456013235509 Sr
11.7540004323162073 0.0034317277113043 7.8110864508434714 Sr
11.7239279754109127 15.6206523979285663 11.7520547019091133 Sr
11.7494463296020424 3.9077353865282567 0.0169305533976735 Sr
11.7523988665517418 3.9092401499896847 3.9196708367545714 Sr
11.7258720377507348 3.9301541936583826 7.7960153974412725 Sr
11.7315737057641201 3.9164323413888202 11.7527074090679164 Sr
11.7463963364245512 7.8006201574942686 0.0133351947131963 Sr
11.7148664041788013 7.8315616397356695 3.8842401739365249 Sr
11.7424860879958164 7.8259023971440156 7.8386808738961422 Sr
11.7143378012891262 7.7942256519922060 11.7419683513706161 Sr
11.7156155748647581 11.6961867987367025 0.0023627651336310 Sr
11.7119627806877471 11.7389441543086797 3.8851021766012077 Sr
11.7343775023926522 11.7005323589742503 7.8015336868281979 Sr
11.7316113331095497 11.7469840856891867 11.7058493703538797 Sr
1.9701711520676408 1.9287865760379947 1.9549422948124433 Ti
1.9634197680657330 1.9506491195362476 5.8340335998084347 Ti
1.9438696639498618 1.9415123088861570 9.7453471704053847 Ti
1.9362631176943659 1.9391327871934640 13.6599077123409138 Ti
1.9492412515505186 5.8538174755606951 1.9257667745231444 Ti
1.9490467790534309 5.8583472184953544 5.8330448526283227 Ti
1.9625490096438687 5.8335621712579124 9.7698356258580876 Ti
1.9616820201263709 5.8402422275976642 13.6976223051125103 Ti
1.9469959203737475 9.7421063869473681 1.9478615488871256 Ti
1.9520903494741908 9.7951576733138026 5.8794130365523731 Ti
1.9512227862011131 9.7448332001631908 9.7554314805559095 Ti
1.9819261216342947 9.7593474485962446 13.6780721760803896 Ti
1.9652028774012933 13.6793795156012461 1.9262447780700318 Ti
1.9707435021650075 13.6702447508105056 5.8388844649054095 Ti
1.9440141284302512 13.6522243817993481 9.7801499728604657 Ti
1.9674598572861368 13.6548723490921340 13.6910219019945849 Ti
5.8594102249183582 1.9652441093750530 1.9264099358434201 Ti
5.8777615059626909 1.9572235770264259 5.8878884278034667 Ti
5.8524342858860505 1.9595422032842162 9.7983624065508934 Ti
5.8794106761767049 1.9642420278505965 13.7012962494282906 Ti
5.8619235535845515 5.8649627676925711 1.9242317790214654 Ti
5.8446680971863678 5.8490282118833541 5.8825994251968217 Ti
5.8438185184105649 5.8558482413605120 9.7932575988964743 Ti
5.8715364193893995 5.8857645331963289 13.6624627325443768 Ti
5.8334585053514934 9.7687742180671648 1.9462097403234140 Ti
5.8616222554614588 9.7758508203865482 5.8328196513684611 Ti
5.8409433764147218 9.7776023334714566 9.7903859865848677 Ti
5.8391479666611188 9.7567104436004879 13.6918337347797348 Ti
5.8843660130221789 13.6833475451231408 1.9342576196897394 Ti
5.8355593637364374 13.6695584251723758 5.8524804320973303 Ti
5.8903589304666717 13.6689405325599012 9.7748004229838390 Ti
5.8447059263012058 13.6568900979062633 13.6683624575014377 Ti
9.7952613748276924 1.9635621614813938 1.9399324649996847 Ti
9.7892326588386549 1.9618272835875068 5.8845293325955188 Ti
9.7986987912027068 1.9459020433401177 9.7641376487766589 Ti
9.7667410802602230 1.9243596839756003 13.6787791208081426 Ti
9.7873676368507248 5.8438984601393242 1.9707781361777625 Ti
9.7785023998962526 5.8903180715214347 5.8697227169113759 Ti
9.7908297940832352 5.8844085720076542 9.7689356405528152 Ti
9.7724306685161686 5.8325747722508687 13.6755717232201572 Ti
9.7721009879642633 9.7982088146424751 1.9425465486915074 Ti
9.7922291296471577 9.7875787238977807 5.8504403731442975 Ti
9.7844169122578268 9.7938177142193350 9.7576141026922407 Ti
9.7777846870219225 9.7650828493271771 13.6502014523379813 Ti
9.7892657458768273 13.6859158153023621 1.9317565769969651 Ti
9.7464474375219172 13.6814417905126415 5.8447053878100839 Ti
9.7530285015093181 13.6549377639618452 9.7753545862297901 Ti
9.7996426783135711 13.6848636934632122 13.6745494445115519 Ti
13.6732268506984820 1.9734743762208189 1.9318851603685738 Ti
13.6541880062600249 1.9609442030542568 5.8466063358021039 Ti
13.7042424893340993 1.9391892345352149 9.7760386247657856 Ti
13.6801040301512327 1.9786696317654255 13.6616142735747292 Ti
13.6942739469523289 5.8871330826119266 1.9473340337535865 Ti
13.6703232277605000 5.8706894349217897 5.8348019997708773 Ti
13.6957381175440371 5.8574521194116880 9.7462983194887407 Ti
13.6760177774071341 5.8385236029461289 13.6607739290679575 Ti
13.6944224762351698 9.7931439205622279 1.9662130894943308 Ti
13.7050356350224671 9.7561517334903183 5.8604074263631762 Ti
13.6604351953946992 9.7469307842577084 9.7725447791071165 Ti
13.6754507141705002 9.7631781533663808 13.7076807495567632 Ti
13.6651162820078014 13.6610368824489292 1.9740457058882668 Ti
13.6949115361213423 13.6549676107874252 5.8708540538252789 Ti
13.7057807978701156 13.6800806595886080 9.7836233166661142 Ti
13.6611365867122263 13.6781697447790922 13.6545583588244384 Ti
1.9482473774778433 15.6122431320199428 1.9750500998556335 O
1.9699790186610322 15.6082087550835329 5.8561799835832122 O
1.9450543996677174 15.6233563487303648 9.7436158778865050 O
1.9768611178396793 0.0042258758408219 13.6978970426910891 O
1.9626919881804625 3.9347449131742556 1.9652180820763150 O
1.9319930573699460 3.8886580466713658 5.8570836843177307 O
1.9331689466892308 3.9117355595046219 9.7917605338663876 O
1.9390928913520327 3.8829550798237928 13.6728312009962814 O
1.9822162533822520 7.8250122683084626 1.9480249759854282 O
1.9343960179116706 7.8390559748850182 5.8616565233652222 O
1.9257984697658055 7.8171540641619890 9.7606849936174616 O
1.9612772608249933 7.8455777788436922 13.6779874009356046 O
1.9623442730045177 11.7417724138886896 1.9308699929355277 O
1.9686310963515752 11.7241148700844739 5.8360950413671633 O
1.9262334687825480 11.7136111414831685 9.7703980836262563 O
1.9350458411099505 11.7476396175088986 13.6757183995406084 O
5.8426525968759080 0.0223689377985877 1.9575688068324311 O
5.8464822265977361 0.0251242595391087 5.8581928963227261 O
5.8563399993648764 0.0171268954688845 9.7944590388904249 O
5.8546515416164313 0.0239194965318652 13.6951916376618090 O
5.8601344453178470 3.9290696337545072 1.9326487149000506 O
5.8446423786095965 3.9144642569044117 5.8389371290308905 O
5.8359514528021830 3.8946504963708048 9.7749468136839113 O
5.8479721751298159 3.8818976265994607 13.6792249706746816 O
5.8855768636234602 7.7985428446477112 1.9603799166006328 O
5.8626150437554667 7.8039967466642430 5.8896312954367023 O
5.8797137144860612 7.8393662310469514 9.7791385348732884 O
5.8915261344387293 7.8095217572240703 13.6792754272680792 O
5.8745359570843450 11.7150499824701271 1.9797751554257736 O
5.8493328842858245 11.7488549910808100 5.8744491572061017 O
5.8647213340820690 11.7530950735736841 9.7612317858792910 O
5.8864597488396981 11.7425178312867402 13.6781988354112443 O
9.7424744620726376 15.6241858693818187 1.9599802840908309 O
9.7554047301002509 15.6070644219477419 5.8609995491570830 O
9.7821134226423396 15.6079963504206596 9.7584919758389805 O
9.7857565127544230 0.0215062672853472 13.6644160544360957 O
9.7968521333959639 3.8943217359337443 1.9581025451179286 O
9.7845818302203025 3.9329571920595559 5.8527413694952912 O
9.7788961684025413 3.8794098011489115 9.7709951565260535 O
9.7977094876557302 3.9081500115699259 13.6915859831512563 O
9.7439970336826569 7.8093414834198089 1.9421477342503655 O
9.7446700140086548 7.8075953838913765 5.8500701144582221 O
9.7523230908444365 7.8168035314992901 9.7943805282640515 O
9.7796996464744730 7.8010203651400554 13.7028490266029515 O
9.7896036086834499 11.7175373728270955 1.9320536373937081 O
9.7625266919838101 11.7511729743913200 5.8739049166182999 O
9.7702255127399127 11.7170601442790225 9.7995837441372320 O
9.7832526096961399 11.7392183351370658 13.6558219166310408 O
13.6564738100052310 0.0179897594938994 1.9629423563842125 O
13.6954486175860861 15.6252266007571219 5.8385999470285830 O
13.6726673136323740 0.0223440979742567 9.7515148047363454 O
13.6955822526901727 15.6309286846818196 13.6540123902990409 O
13.6856753410794099 3.8818561154532762 1.9666531016639386 O
13.6843917496287943 3.8877776644796946 5.8411177811317163 O
13.7037056265718320 3.8955990431038918 9.7815336435524092 O
13.6913659660127482 3.8859861396146904 13.6945271945416671 O
13.6944018942208370 7.7984810904971154 1.9358539679938578 O
13.6682885505380476 7.7950836902975968 5.8805829962589513 O
13.6537341660394898 7.8308034997133840 9.7624527492013105 O
13.6783074658468564 7.8335686212559494 13.7034356326652773 O
13.6654828925096368 11.7016936226147994 1.9401837441803298 O
13.6926928584081971 11.7423940611248501 5.8425090858101987 O
13.6595272224421134 11.7038991827401748 9.7803956789572641 O
13.6955247882365256 11.7348452446975315 13.6560609983248149 O
1.9324026467604289 1.9656323906536122 0.0172028986926367 O
1.9446397111543918 1.9264737936951650 3.9150285442785586 O
1.9530830016484679 1.9837490245919349 7.8119055564049145 O
1.9301178600925877 1.9654063458474376 11.7387088667561432 O
1.9460913232017680 5.8830804222664410 15.6127746824076770 O
1.9255396353498744 5.8554526550696258 3.9142303041478499 O
1.9368163663581135 5.8408220337219552 7.8047243676392188 O
1.9793187115199231 5.8477426026294985 11.7175037951518348 O
1.9539143868564752 9.7762522100062395 15.6034571305833438 O
1.9516494651645324 9.7995079302867651 3.9157503281642110 O
1.9549016921876159 9.7771808384627157 7.7872046247577194 O
1.9308389675645665 9.7520444473713770 11.7285620869255851 O
1.9279657004529733 13.6727136363542137 0.0133872827928889 O
1.9492815084884099 13.7059300399327881 3.8963720206285530 O
1.9291950704014211 13.6653185251094129 7.8065925851658866 O
1.9833626159127002 13.6830348643106685 11.7195285485576779 O
5.8733466767115363 1.9820216645494622 0.0002895118918465 O
5.8593697776689089 1.9466941236382458 3.9371438778897820 O
5.8534240020093753 1.9255880270392800 7.8138652831806015 O
5.8448428721496208 1.9345889692966480 11.7101069754173501 O
5.8824735024743049 5.8415567201093088 0.0079179517267398 O
5.8340715410043993 5.8718199209021424 3.9115340816111224 O
5.8444163829163545 5.8547044268141999 7.7936465220846083 O
5.8431392115622982 5.8657934049627105 11.7018965730414592 O
5.8776993369932926 9.7513208432816292 15.6157787877465886 O
5.8568334521205845 9.7932465832083366 3.9270822440231163 O
5.8707072425702309 9.7977935781689514 7.8258888896813641 O
5.8343049718782503 9.7673270903015759 11.7145181848518600 O
5.8881713318495610 13.6657512923732121 0.0079134995986213 O
5.8527095089462158 13.7062451348895120 3.9155724780366437 O
5.8780860518337645 13.6826970090897895 7.7912188855698803 O
5.8721983420175041 13.7001142816114445 11.7433544432539154 O
9.7899695767590220 1.9453412272172663 0.0211359956383941 O
9.7439816132719894 1.9405941084502145 3.9114239297376745 O
9.8001382413053371 1.9496634545238318 7.8189000263843740 O
9.7682459810747382 1.9451259735909445 11.7532124907519435 O
9.7967947501753923 5.8676543307717566 15.6193452358570024 O
9.7999754690091461 5.8584211514887770 3.9127004999740747 O
9.7880880651642137 5.8826649850975157 7.8030346822041556 O
9.7996234500963215 5.8659711327875730 11.7181438635034869 O
9.7832259829078367 9.7976709807315050 15.6305806309439017 O
9.7694544756055191 9.7849932510168021 3.9345105658620239 O
9.7955853050441632 9.7540425180649830 7.8175026985716718 O
9.7989377129050013 9.7608127501807829 11.7250112579614587 O
9.7473073389730587 13.6598573410557087 0.0000086090867877 O
9.7506344458844154 13.6587172296500992 3.8982664814466004 O
9.7856969350299945 13.6678764070194685 7.7929643722886377 O
9.7741044036577254 13.6648649858673519 11.7510166885318021 O
13.6743787908339165 1.9729944991805792 0.0228908824174562 O
13.6562822766627168 1.9350132748352473 3.9135325063854216 O
13.6979737472718792 1.9393060563849012 7.7987632031807053 O
13.6606819845885905 1.9470923375121016 11.7475424244897066 O
13.6537416302252375 5.8487699210286115 0.0093749777747628 O
13.6733789778207964 5.8845749506072602 3.8888288743987642 O
13.6926409336457056 5.8359053161632470 7.8195360885944183 O
13.6580917027747581 5.8415112123133675 11.7307880096065080 O
13.7055535101522867 9.7574281630058000 15.6295248569908125 O
13.6562827199462546 9.7518175547788513 3.9018013491728869 O
13.6953360088223857 9.7459541730303414 7.8119233292293382 O
13.6639349652930218 9.7736209147959929 11.7505646649982332 O
13.6914953615899417 13.6516632834807581 15.6313504125531342 O
13.6827916345727854 13.7054450017850726 3.8950346789845351 O
13.6618382168061814 13.6627288833084428 7.8352731892529510 O
13.6768241834732454 13.6955584631607952 11.7494890854138543 O
0.0241651380949734 1.9471318248124381 1.9704632841581708 O
15.6067550398311674 1.9506904484401502 5.8766257151774477 O
0.0084173979575959 1.9276004194947267 9.7593386039687946 O
15.6122811166705731 1.9625299084939503 13.6988861233800563 O
15.6068084664781690 5.8750879074324249 1.9616027831244787 O
15.6282000632837796 5.8457872962487585 5.8869129981882242 O
15.6072931231900736 5.8778310021050419 9.7724946232345733 O
0.0229906132151620 5.8543954387483952 13.6963571473782597 O
0.0150627212288636 9.7454886177275633 1.9607465702939542 O
0.0252141554795055 9.7664723793760597 5.8780730709344118 O
0.0078856025553150 9.7855235038586414 9.7457871378953573 O
15.6178532991130208 9.7733035090365039 13.6529978445330720 O
15.6272895768512505 13.6535634300648105 1.9693298448968544 O
0.0007738238748592 13.7081885202546552 5.8563692330741892 O
0.0265780917507283 13.6825400960963925 9.7571690536761277 O
15.6138876892513832 13.6613421985058565 13.6940722701955995 O
3.9220201780506248 1.9427593416766360 1.9300132863686232 O
3.9189535602439305 1.9545978058846709 5.8903557618223736 O
3.9003692947517821 1.9811830655478682 9.7602991492593159 O
3.8928607446692323 1.9798737025333153 13.6782672489568053 O
3.9057328038686099 5.8421464803814738 1.9320713188379224 O
3.9244190300910726 5.8371378299578041 5.8607354328368677 O
3.9180055072915105 5.8843420882619437 9.7884715858471356 O
3.9154292612831085 5.8674942337121800 13.7074631164621170 O
3.9289702817241214 9.7618853147987963 1.9342563758568250 O
3.8918796469828911 9.7494976031310490 5.8760768659723306 O
3.8975673527091401 9.7828918160012535 9.7453809340111466 O
3.8941258152806184 9.7507190428665638 13.6612775138062137 O
3.9306856883841421 13.6605168664922889 1.9619512303518585 O
3.8959037129120047 13.7058732321689956 5.8662297566356081 O
3.9021325655275847 13.6560196606334880 9.7520258160727753 O
3.9144262531123273 13.6819228877742720 13.6496132703384738 O
7.8385618082829813 1.9618385593299710 1.9728679481173403 O
7.8370209460894262 1.9659544769169541 5.8439871157633201 O
7.8254255279317402 1.9567971238211526 9.7990730022677948 O
7.8196646610470752 1.9484604236980292 13.6495121311008543 O
7.7989699770808425 5.8395714480490302 1.9628139386452872 O
7.8252344012892561 5.8888444261282924 5.8733247294495392 O
7.8348729162838611 5.8390132586193504 9.7746439020155726 O
7.8048580952677451 5.8550976412683244 13.6520977107820247 O
7.7901614785037099 9.7700717280107909 1.9685470321328191 O
7.8237730665578633 9.7418844709987340 5.8574892415396906 O
7.7867313144252437 9.7682663726416408 9.7739002664665247 O
7.8413468922566869 9.7862668073856405 13.6729577255125267 O
7.7891079673984960 13.6668603338950163 1.9510320356123156 O
7.8132118960996779 13.7036584384829982 5.8788198311497863 O
7.8346858042157779 13.6549732340455243 9.7707016512438418 O
7.8035465339431571 13.6786629083649505 13.6517197765369733 O
11.7358303788788003 1.9329479491796664 1.9360096464617897 O
11.7366213817153913 1.9807261566563454 5.8693662402832434 O
11.7238654382146965 1.9686429772541769 9.7968053829900885 O
11.7275097882990735 1.9428690529208501 13.7064683120149162 O
11.7312929352293960 5.8339718790426671 1.9612863660100759 O
11.7357672243664126 5.8466045414532877 5.8853535189868316 O
11.7082971456407812 5.8667351783803845 9.7953124023883369 O
11.7473106946062931 5.8445329167721596 13.6703790546901516 O
11.7200167758496203 9.7585998605495607 1.9812231936642046 O
11.7122040999469093 9.7978489140729526 5.8627136081373754 O
11.7487493909232299 9.7817610918941043 9.7565818338174832 O
11.7013027192696129 9.7577493981208665 13.6650565607119674 O
11.7213532898619608 13.6633107306059802 1.9795896652160256 O
11.7278034589512483 13.6489885826899613 5.8610811256264768 O
11.7433640999837312 13.6715070269543180 9.7928851271667465 O
11.7158806156848900 13.6534364555170917 13.6921859649116069 O
