Te125 Pb125
1.0
0.0000000000000000 16.1027568429597387 16.1027568429597387
16.1027568429597387 0.0000000000000000 16.1027568429597387
16.1027568429597387 16.1027568429597387 0.0000000000000000
Pb Te
125 125
cartesian
32.1137895216581413 16.1359465270997084 16.0807313450709550 Pb
19.3048297639534141 19.2872687009417483 32.1140822873227449 Pb
22.4895341332839429 6.5245511451078286 16.1119822989623280 Pb
25.6795753768796615 9.6287108410172539 16.0613120959473115 Pb
29.0207920445964120 28.9888408374909048 32.1122335287306129 Pb
3.3104028568514439 16.0598231265960862 19.3324409032008724 Pb
6.4493752244599509 3.2968614369874181 3.1564550394010631 Pb
9.6741155266469949 22.4959423521396502 19.2364252313410233 Pb
12.9072929016177884 9.6757300250720384 3.3163244832428953 Pb
16.0823369991135294 28.9673632143341564 19.2270102284413156 Pb
22.5416884481526303 16.1503841246003823 6.5290056849695119 Pb
9.6744643339304517 3.2222472844295571 6.5402643321897171 Pb
12.8665440657091779 22.4455375016729199 22.5345060159017869 Pb
16.1340945988181161 9.6812729443809289 6.5340169246341908 Pb
19.3535783329234476 28.9876249841936797 22.4485882310543197 Pb
9.6599056954838360 16.0553829367711813 25.6763617802336128 Pb
12.9259748883801109 19.2353105031500036 25.7828674303361254 Pb
16.1049395999316225 6.4149847255969066 9.7581584323251924 Pb
19.3798656589510720 25.8048721368502214 25.6925489462584871 Pb
22.5628275103501110 28.8881286236884449 25.7806421963738401 Pb
12.9778287220592148 16.0970595460050774 29.0136631066608501 Pb
16.0249717496954318 3.1581745827145777 12.8745493755262270 Pb
19.2773994540780294 6.5145453864693792 12.8322198439010844 Pb
22.6233358320344777 25.7074803875409614 28.9639281406750229 Pb
25.6715574857143736 12.8679696686622105 12.9164921516766427 Pb
0.0734722136826316 3.2803171578794403 3.2526431782544898 Pb
3.2988678787780912 6.3898752905392620 3.1853054760293404 Pb
22.5123895280709405 9.5811325047690783 19.2730498033611255 Pb
9.7245138241604323 12.8055391259065985 3.2074774702354234 Pb
29.0587532732109182 16.1577318803738663 19.2841592640418042 Pb
3.2563183645809612 3.3121276987797672 6.4593920167556398 Pb
6.4286880398881676 6.3702321001970201 6.5105522015744146 Pb
9.7439035015172628 9.6957433924229850 6.4866324795075743 Pb
12.8189708690570807 12.9339520874577829 6.3834514342939084 Pb
16.0399632025320322 16.0256375117317944 6.4306352889374843 Pb
6.4578724300154446 3.2980547861358263 9.7225802715123724 Pb
9.6859378645320646 6.3467651523765998 9.6842532020718366 Pb
12.9407749110053878 9.6639428341325626 9.5806332268959906 Pb
16.1065147283710388 12.9787876070612178 9.6873011317559694 Pb
19.3575567705551812 16.1441788625740799 9.5773258631921578 Pb
25.7043506053459367 19.2460032394255443 12.8617923306487576 Pb
12.8914603500109148 6.4223060984649427 12.9799860125627724 Pb
16.1915908711570040 9.6232716543439754 12.8570002595040336 Pb
19.2965413509884414 12.9761391541664963 12.9036530610633271 Pb
22.5611800106410634 16.2011943495424973 12.8790337264027901 Pb
12.8590754396207938 3.3078006193068239 16.1457983315759037 Pb
16.1349554332453451 6.3476893533235081 16.1181578331672490 Pb
19.4164231585529770 9.6405051821374226 16.1324608775995344 Pb
22.5876146325255220 12.7997653944578005 16.0668524056922912 Pb
25.7377740717210770 16.0228760741840297 16.1566969909268678 Pb
16.0341113368624448 6.4532638976411816 22.4721664795761562 Pb
3.2885829609027240 9.6451332906652834 6.3696970993410540 Pb
6.4303806859956962 12.9343598231081387 6.5257488329343092 Pb
9.7085661198949857 16.0159314971082338 6.4249589380940959 Pb
28.9049362008843005 19.2654553713103383 22.5280839799007708 Pb
19.2529502445512541 22.4926170401850563 9.6124203919390965 Pb
6.4459520239898636 9.7572407387038140 9.6326768729375090 Pb
9.5936854077345011 12.8643329957501997 9.5905145907744860 Pb
12.9298789893821251 16.1265956787913929 9.5770435516329364 Pb
16.1960833515399578 19.3531893350233979 9.6815860212957876 Pb
22.5659738088970450 22.5115226724459490 12.9742124593591122 Pb
9.7102366705106000 9.6753453312089945 12.7958788576732179 Pb
12.9582560220389542 12.9400513084805997 12.8527067680451434 Pb
16.1253162036754780 16.1917971722551997 12.8426720074940839 Pb
19.2758790711596042 19.3973565413772242 12.9298218737666950 Pb
25.6733940305174286 22.5096176752541624 16.0794456321887402 Pb
12.8353722314873764 9.7453893429916754 16.0745600805620477 Pb
16.0235806112744257 12.9338294029929415 16.0701057429871739 Pb
19.3057913793549858 16.0090841305370297 16.0724486998763325 Pb
22.4818111070718416 19.3577497751383802 16.1732108399163508 Pb
28.9071784998095822 22.5491237622570928 19.3859338142953810 Pb
16.0599137546669972 9.6145164767936908 19.4003959130317583 Pb
19.2252997286228471 12.8950335286547535 19.3384666513526007 Pb
22.6279030260609488 16.0485821734337755 19.3246514837116656 Pb
25.6862753617017532 19.3036223220964231 19.2640857850965403 Pb
0.0912499164968207 9.7017614576747135 9.6536009658302415 Pb
3.2421131716846707 12.7847205601448035 9.6672914940298984 Pb
6.3886128422466069 16.0875171495258549 9.7453951511091432 Pb
9.7201163874155743 19.2424846451229357 9.6687048316401469 Pb
12.9751203538215254 22.5533145120871730 9.6973952506657479 Pb
19.3255299645265168 25.6970735545591182 12.9561022886377089 Pb
6.4633008075915903 12.8220388939034287 12.9589337498951416 Pb
9.6877756536830688 16.0062336825773919 12.8831771969274165 Pb
12.9821439033024042 19.3266497050717447 12.8832754477961764 Pb
16.0508372566378057 22.5070737804103764 12.8050617027841831 Pb
6.5054930776047764 9.6742629605210748 16.1782214097609689 Pb
9.7322744545484952 12.8960589620259292 16.1721891641000788 Pb
12.8038904731177343 16.0470206234968664 16.0751844941445015 Pb
16.0322713394844527 19.3871392786934855 16.0718151450849547 Pb
19.2724487657592505 22.4592512403881166 16.1187175953699580 Pb
25.6951367151467736 25.7417240639204152 19.2548510291814949 Pb
12.9753066345546362 12.9126643022596106 19.3031976726399463 Pb
16.0239319645689804 16.1215622195837689 19.2647164343409756 Pb
19.2985991257808323 19.2821265031032283 19.2355954532457574 Pb
22.4541823848669040 22.5272091444749307 19.2823110941000877 Pb
28.9178320639741457 25.6909451966879558 22.5340456940231100 Pb
16.0696262863827251 12.9111395886973455 22.6336659454462286 Pb
19.2849040056516507 16.1476519183392426 22.4631778029206721 Pb
22.5561056775258351 19.3727408897138886 22.4577988839541582 Pb
25.6932394857470356 22.4747007519046278 22.5561753965061982 Pb
32.1791525729637229 28.9288501478634430 28.9064988470896722 Pb
3.2593367187993780 16.1310190313583348 12.9699377108388259 Pb
6.4967786610969007 19.3788597814489236 12.9439648022331930 Pb
25.7560423746352782 22.6353662695406825 28.9455099059548431 Pb
28.8897359794246427 25.7866873045686624 29.0058359499870058 Pb
3.1793147152489407 12.8503204635083943 16.0174170251513743 Pb
6.5205151112274411 16.1498421039641968 16.0643295994349913 Pb
9.6018275939982303 19.3910932734817969 16.0600254274945975 Pb
12.9570722999659065 22.5088736205254634 16.1590679524716094 Pb
16.2015243895633745 25.7536366200150511 16.0914040645103427 Pb
6.4511603606577417 12.9703871805325512 19.2772340223788881 Pb
9.7610517343888059 16.1117141334338108 19.3169932789722303 Pb
12.9816367532872370 19.3266614551737312 19.3334164522321643 Pb
16.0614702755142602 22.4540506324919740 19.3081499705498416 Pb
19.2402298163219427 25.7686460555867498 19.3788063567099655 Pb
9.6766919630876149 12.8266581526295020 22.4620771988187258 Pb
12.8782408917001874 16.0182517716198092 22.4905381491603507 Pb
16.0342200798401819 19.2818862981062722 22.6037506244458868 Pb
19.3777950113801651 22.5541999307476217 22.4606474067923898 Pb
22.4955349143437999 25.8499388887164514 22.5625597982697386 Pb
28.9139493124594864 29.0113157950263840 25.8296999014978041 Pb
16.1164021174910914 16.0510357248820057 25.8489019685409644 Pb
19.3321357553834439 19.2874019274242023 25.8573238823350273 Pb
22.5463481148881542 22.4447426824028042 25.7774358394091436 Pb
25.7058527078576446 25.6838811191175580 25.7736780392699991 Pb
3.2524191684096220 3.2431953364161892 3.1285095625690573 Te
6.4094247884046434 6.3474486581045255 3.2355653964637030 Te
9.5853146677770908 9.6050792109644298 3.1893813271561093 Te
12.8667446900745155 12.9500483479883837 3.2923727348274707 Te
16.1247962990086542 16.0060049249406049 3.2329339667315571 Te
6.3993050252090846 3.2529406050437983 6.3562270125287457 Te
9.5769471252235192 6.3932342407480496 6.4180087012724405 Te
12.8679534537259244 9.5677914005838129 6.4725140803843795 Te
16.1456402863244008 12.7919179983193860 6.4441329111060730 Te
19.4037062268429601 16.0503607887254311 6.4692241282927974 Te
9.7392702846465333 3.2753144817911450 9.6929067890245690 Te
12.8835405093867763 6.4605074290256432 9.5635639655168703 Te
16.0123664828453656 9.6377937616329010 9.6971543420535671 Te
19.3909095499671764 12.8177543579470576 9.6259313870025576 Te
22.6072228288825769 16.0267022374152681 9.6758243451782651 Te
12.9399512922413038 3.1565905188070182 12.9329443176036065 Te
16.0705684312711305 6.3511703836550559 12.8526068605197192 Te
19.4052164118772126 9.7034564449508878 12.8429166571429452 Te
22.4491671722725172 12.8720463255237441 12.9127036642539839 Te
25.8114202334088958 16.1644797124654644 12.9452960008712292 Te
16.1681921879948618 3.2873385737172640 16.0672929902124260 Te
19.3970853198252264 6.3828124587279955 16.0687100849301174 Te
22.6194787831810160 9.5967654979078798 16.0943185551625412 Te
25.6824850749277651 12.8496069669808453 16.1499319266053263 Te
29.0164648837870871 16.1386301482572456 16.1906243242795789 Te
3.2241928615154851 6.3513846676504899 6.3970867454480880 Te
6.4655175248857608 9.5778753886161283 6.4899396565435907 Te
9.6219274128837444 12.8036803335704139 6.4885958117801943 Te
12.8648589708642547 16.0786191504039344 6.5365829477737538 Te
16.1636544879614625 19.3929489737450851 6.4790716860022028 Te
6.4585993008138178 6.5034167944292918 9.5854253150812401 Te
9.6638202837793266 9.5627214058746262 9.6472447836851600 Te
12.8175184845358388 12.8389862098042453 9.7244847393638274 Te
16.0139015735597425 16.1197710731438733 9.6190482720075039 Te
19.4048699039888035 19.2963720789501423 9.7128608932875107 Te
9.7125185939223755 6.3735489288413731 12.9355841857049256 Te
12.7938387999183014 9.6321215103491902 12.9185256705966580 Te
16.1974864130914860 12.8649690249277491 12.9092094250668197 Te
19.4174833743875368 16.0889398748965604 12.8515439333370338 Te
22.5309495001417019 19.3080461293328298 12.9801870985668639 Te
12.9605755154392295 6.4669212038795187 16.0462630960495929 Te
16.0170847248182326 9.6110486774773030 16.0927879513529390 Te
19.3295689617458599 12.8550285264004849 16.1987892151380208 Te
22.5329114102628978 16.0273292403491681 16.1674933422525200 Te
25.6956483137333009 19.2558818257752442 16.0758239164817418 Te
16.0656863523914382 6.5334391805185223 19.3332962024075634 Te
19.2913717451791911 9.6832564474811669 19.2310401187541942 Te
22.6133858775243652 12.8243303688740049 19.3659294050662751 Te
25.7829665215085981 16.1678854602756559 19.2497286360868713 Te
29.0174210799826149 19.3643712438194200 19.2381010750672345 Te
3.2156721615596480 9.7541542233248908 9.6993359527601442 Te
6.4563413256634137 12.7871150770226691 9.6347171097685340 Te
9.7376363664982044 16.1672320812862012 9.6699991461151793 Te
12.9035663350726253 19.3036835992933113 9.7573546189597167 Te
16.1851991951096608 22.5080286766193183 9.7054651195123363 Te
6.5198654824771287 9.6050970945824528 12.8577568662531299 Te
9.6924866831572647 12.7886973442003153 12.8647245772340177 Te
12.8052612866777586 16.0493612759635340 12.8471554329145334 Te
16.1584506328930182 19.4062035637578560 12.8770516073262051 Te
19.2565251766544918 22.5951249695087668 12.8282435794495964 Te
9.5966708914493566 9.6259040483505736 16.0356813984968980 Te
12.9209771763816903 12.8952548739051949 16.0115073591548516 Te
16.1892806811290768 16.0633047833970579 16.0718188335746852 Te
19.3481227428795819 19.2416831398750148 16.1549256718593313 Te
22.4741873656111260 22.5544900023745569 16.0318147775448594 Te
12.8628396930926812 9.5955780230940650 19.2507898151750680 Te
16.1173586439722705 12.7910946945059081 19.3618518647276581 Te
19.3138631351767813 16.1973143049261239 19.3544478473675952 Te
22.4714714606651178 19.3362207010450149 19.2555348556258679 Te
25.7579634512572788 22.6169559171023913 19.3912446178407940 Te
16.1902258018181158 9.7100630810176973 22.5462579863362862 Te
19.2850738019493484 12.8876523960262048 22.4516182609487700 Te
22.5659642171687764 16.0089881994511565 22.5706705203835156 Te
25.6721993587856687 19.3444445244414638 22.5114515725477489 Te
28.9137654689757184 22.4851551367209268 22.5053265150280737 Te
3.2044697557713722 12.8551645642444825 12.9771273944326122 Te
6.3853907945289468 16.0197316751275913 12.8839377999879243 Te
9.5995145041167422 19.3834382304635184 12.9324354527801919 Te
12.7938349853826097 22.5884928602344104 12.8962954347956433 Te
16.0143716575705426 25.8099474332047265 12.8715055871763919 Te
6.5309730808012212 12.8697876062857102 16.0606959598211283 Te
9.6478587419016399 16.0284055584549101 16.0373231022133957 Te
12.9791428189380191 19.3451165564395176 16.1140505279618473 Te
16.1861106321055850 22.4944727249180154 16.0779963024576809 Te
19.3561529852241314 25.8582164134077885 16.0917225491428546 Te
9.7190640672197866 12.9621489730187118 19.3056126372333665 Te
12.9173830715105087 16.1822175414291181 19.3727908757687999 Te
16.0143057220286593 19.3174165474003274 19.3695865812243753 Te
19.2991053029328619 22.5825580285768766 19.4122837660779055 Te
22.5148945635731224 25.7192489512673532 19.2389196945618082 Te
12.8911933253711677 12.8261760111608254 22.6261998363193371 Te
16.1584998934921593 16.0285725223860105 22.5811342216355904 Te
19.3074442779415776 19.2727385433973488 22.4590595549480341 Te
22.4494291860394810 22.5121204393402650 22.5351689178905303 Te
25.7492773248542264 25.7615461209950638 22.6426662914047370 Te
16.0221333062834219 12.9412776105887879 25.7611972194236856 Te
19.4139042695426696 16.1373884456805179 25.7887626708407183 Te
22.4463297851520167 19.3333607473945648 25.7447415407114306 Te
25.8173446861813929 22.4638185883957746 25.7925438312760598 Te
29.0806259843974431 25.7913008995002109 25.7756088659799190 Te
3.1232664517465074 16.1211587414589097 16.0887206367058333 Te
6.4106730100844889 19.4154019541407301 16.0784098865873730 Te
9.6995690411606681 22.6117989071920249 16.1655796534267644 Te
12.8835560649230754 25.7670909744761722 16.2027117996511478 Te
16.1703422098400047 29.0268005374928215 16.0420791574644888 Te
6.3577416742246040 16.1560125548672673 19.3379629831813915 Te
9.7318695709422336 19.3512718829282342 19.3887896710239040 Te
12.8060445775586675 22.5225693905964945 19.2621016299915624 Te
16.1788097550055490 25.8281924816086814 19.3354684185281478 Te
19.2960504329881957 28.9070013764056029 19.2669246572264043 Te
9.6339224910186445 16.1781635906236545 22.6033976347785313 Te
12.8966041161791658 19.2922416994631085 22.4499045326973246 Te
16.1437223690182208 22.4936884557142776 22.6200480566229949 Te
19.3571937901093918 25.7407537906828381 22.4527985762029942 Te
22.4830705826466257 28.9716786949223781 22.4655764838896701 Te
12.8686531039093914 16.0156407642430914 25.7172185543907972 Te
16.1633376507781037 19.4022155272692061 25.7745894186760864 Te
19.2816366980375662 22.5516528323749945 25.6738419132924385 Te
22.5935251131850485 25.6816921123205759 25.7906964757392423 Te
25.7987392822926758 29.0601243476322395 25.8207335438077656 Te
16.1573830867294994 16.1675292030093587 28.9318537976229706 Te
19.2618626230373273 19.2999107643813197 28.9096164540168274 Te
22.5936846273049525 22.4572065478985365 28.9879147194178231 Te
25.7344426595371942 25.7961552953181936 28.8949945558650754 Te
28.9696131571688085 28.9822806760194176 29.0837409186656473 Te
