Te125 Pb125
1.0
0.0000000000000000 16.1027568429597387 16.1027568429597387
16.1027568429597387 0.0000000000000000 16.1027568429597387
16.1027568429597387 16.1027568429597387 0.0000000000000000
Pb Te
125 125
cartesian
16.1097216894378619 32.1560123287119808 16.1017049170344819 Pb
3.2599590591596996 19.3536110634067704 16.1081207122315568 Pb
6.4586584569197463 22.5196855979993060 16.0626642589591775 Pb
25.7919746620816497 9.7029885911726463 16.1083872979642280 Pb
28.9370484622396873 12.8755768752595685 16.0900949250764285 Pb
19.3067609724593332 16.0847292040525502 3.2641540418339936 Pb
6.4384601258340828 3.2045350922303228 3.2678429692918805 Pb
9.6861150617112433 6.4571611013175856 3.2610950558450371 Pb
12.9291996036547232 25.7524536972138023 19.3354973849694431 Pb
16.0553887712294241 12.8804718761373174 3.2364655263681916 Pb
6.4609438021552439 16.1122884820927865 22.4989654825779191 Pb
9.6590130726268448 19.2754907598195118 22.5582302535358892 Pb
12.8968178113619221 22.5029013709631158 22.5685355747192276 Pb
16.1383373277313780 25.7624290081397014 22.5789323760813616 Pb
19.3608114906996107 12.9112661407145684 6.4568818919342013 Pb
25.7634606032572080 16.1367314994322690 9.6983258873121354 Pb
12.9028502653177100 19.2795146565799271 25.7519242698508819 Pb
16.1029265918986937 6.4795873417967629 9.6935744189492610 Pb
19.2830098367194793 25.7424724632969983 25.7445427872065622 Pb
22.5133864818967844 12.8914859681179372 9.6231149994163161 Pb
12.9114546324497663 16.0703645316299699 28.9605650855540091 Pb
16.1278577303983539 19.3058787978823396 28.9453875654150217 Pb
19.3219880733896510 22.5282459449347208 28.9374810406935126 Pb
22.5530377631148014 9.6986133431648192 12.9146057170979578 Pb
25.7543877160869279 12.9304937748708788 12.8904380220776282 Pb
0.0306748747181353 3.2560042829969440 3.2379336273985224 Pb
3.2095151362279259 6.3929817739190273 3.2126409659682835 Pb
6.4256612781353706 9.6165711275175401 3.2054157677180481 Pb
25.7210627710176816 12.8853633003569819 19.2985905331906622 Pb
28.9968887609729720 16.1205742570954413 19.2781385348261551 Pb
19.3212226902925366 19.2765857696059051 6.4234204290850982 Pb
6.4175590434269152 6.4392334588287738 6.3970323357481416 Pb
9.6588390017276957 9.6535229830174636 6.3918487014925311 Pb
12.8938300025883663 12.9265074984552211 6.4611576868324505 Pb
16.1040003275734627 16.1513814522590522 6.4295225335369723 Pb
6.4764869595238608 3.1957920437738028 9.6364562359463211 Pb
9.6497154702937422 6.4685623700781569 9.7016970520228156 Pb
12.8608611810392848 9.7021200049501388 9.6818266650166152 Pb
16.0551111557705823 12.8677243058985660 9.6661467945073927 Pb
19.3694150031763961 16.0910358478863813 9.6770418294725395 Pb
9.6875614788914302 3.1853585384151186 12.8579099455117536 Pb
12.8498331634473750 6.4683825879916999 12.8556001511114300 Pb
16.0609324614477273 9.6474619288980286 12.9056426932003738 Pb
19.3026323082451938 12.8908034824742330 12.9269109693215682 Pb
22.5845833533245752 16.1299371342670987 12.8720661419265205 Pb
12.8952363404912074 3.2148823085867089 16.0548187757612055 Pb
16.1363527799127517 6.4058453508447419 16.1140806995810841 Pb
19.3158564875535461 9.6126158022944956 16.0964547321128144 Pb
22.5808265520347788 12.8489677894434617 16.1081140147948183 Pb
25.7281293808625335 16.0729964442618716 16.0854951367283867 Pb
16.0729191275143712 22.5303966141142773 6.4788977009051845 Pb
3.2629896357369059 9.6427872201096250 6.4596239171406653 Pb
6.4040884420601429 12.8548046382600027 6.4605741556500877 Pb
25.7665574701773608 16.1186575397828236 22.4965039016431589 Pb
12.9180622049775504 19.3140642247345475 6.4075044697032073 Pb
3.2178071697814254 6.4649020295883579 9.6177671708870260 Pb
6.4210986425455081 9.7067877950465160 9.6537303257109528 Pb
9.6150346813821557 12.8937662192986036 9.6755457739926491 Pb
12.8996300569257727 16.0690899763978550 9.6290515595779738 Pb
16.1501100072528452 19.3393490246036421 9.6622625037232179 Pb
22.5784232463044745 22.5297840843563009 12.9154805911949779 Pb
9.6534698246347403 9.6813931868418805 12.8370016446531352 Pb
12.8970372065464893 12.8356210865990619 12.8926894877592240 Pb
16.1091134159317519 16.1184873219359801 12.8351720180709208 Pb
19.3396365929465901 19.3656378884626115 12.8611916119517780 Pb
9.6590181730862366 6.4874353518190659 16.1213670734775221 Pb
12.8432409414306257 9.6843598591704598 16.1243488307276834 Pb
16.1072473631966560 12.8668931817912284 16.1501421668908023 Pb
19.3345804849464145 16.0956026388349187 16.1509414174193680 Pb
22.5049574431658534 19.2928851500371152 16.1105710010488643 Pb
12.9146307505456654 6.4038841661169368 19.3153470914971770 Pb
16.1298116995314338 9.6567977290934852 19.2815415940036452 Pb
19.3716477442179702 12.8940841860635071 19.3280183909597341 Pb
22.5230580524172908 16.0963705021198606 19.3683249983642405 Pb
25.8007570481646802 19.3006477061376991 19.3491047723820131 Pb
0.0307048358541692 9.6902033962470941 9.6888965555327378 Pb
3.2495555354026462 12.8734930293388352 9.7014391734424290 Pb
22.5526849968791439 16.0923654848478321 25.7163055260055557 Pb
25.8028750833271445 19.3476544696737989 25.7437283457665700 Pb
12.8798729475532472 22.4981081730105359 9.6816882781820208 Pb
3.2432468797026259 9.6805754468411429 12.8418706677150283 Pb
6.4489362280448859 12.8708256301436066 12.9302589400738590 Pb
9.7096286785234138 16.0903869322051740 12.8754656169796657 Pb
12.8808296895214376 19.2773939423194491 12.9019535653369477 Pb
16.1063648681344382 22.5916447755181444 12.8964728237137187 Pb
22.5629138225269195 25.7595196844943004 16.1487243464956158 Pb
9.6538715862931497 12.8352860175300787 16.1181839930709963 Pb
12.9322005489908296 16.1027517589554314 16.1034586175601362 Pb
16.0928705694623950 19.3721476837666344 16.0986376743419619 Pb
19.3234058291264645 22.5867505781624232 16.0770595131420038 Pb
25.7469498455371308 25.7175592246016400 19.3234688999756088 Pb
12.8524519072898915 12.8969749333952546 19.2859372559019207 Pb
16.0631606312316890 16.0850522372151730 19.3481816301389387 Pb
19.3326467451095354 19.3503702449055979 19.2823150640543233 Pb
22.4998500363222647 22.5302417984928240 19.3427431305261877 Pb
28.9633450703480548 25.7876203420511203 22.5825121181580144 Pb
16.1308131193889359 12.9020918902548640 22.5075639080036289 Pb
19.3638727640538022 16.1319885739920394 22.5437079847658097 Pb
22.5086549496287347 19.3216042134058554 22.5793240747914972 Pb
25.7723652873723665 22.4997004156536917 22.5217983769035328 Pb
16.0781001814184883 12.9104159837731487 28.9518531614831076 Pb
3.2186890580913956 16.1310028932226146 12.9234206711299890 Pb
6.4438489177386877 19.2885355259858784 12.9180289140533073 Pb
25.7671499783185354 22.5136859944910448 28.9451872944386750 Pb
28.9397379433204343 25.7758290405911765 28.9669516767491473 Pb
19.2896864923271352 28.9560561805759136 16.1258656130369715 Pb
6.4111244900840649 16.1043377064523874 16.0627717761042348 Pb
9.6242132440204564 19.2963701120269562 16.0834560485457772 Pb
12.9097504704233472 22.5425571653535357 16.1444650784536350 Pb
16.1129558070549948 25.7821229874007614 16.1483886829150478 Pb
6.4157290542973051 12.8903809871265569 19.2810076535423391 Pb
9.6948977215728807 16.0669319267209083 19.3127518208228572 Pb
12.8404896386669609 19.3041646702433738 19.3431403540975140 Pb
16.0588482956078060 22.5525430710136874 19.3455935532756200 Pb
19.3463364308307497 25.7227793837357055 19.3079292027248322 Pb
25.7490508933910895 28.9393335595676291 22.5573534737663799 Pb
12.9146574041988895 16.0655233120058583 22.5360790645473408 Pb
16.0897368108665688 19.3004758445066074 22.5863938225773708 Pb
19.2739339180948264 22.5363729627844052 22.5413837558058034 Pb
22.5493058214104316 25.7845192306884528 22.4984063574529642 Pb
12.9063515088456011 12.9254468196648507 25.7575439933769950 Pb
16.0774699323345693 16.0658562153290561 25.7420745248611951 Pb
19.3566119795912321 19.2995802222166297 25.7356387128738469 Pb
22.5925902559961074 22.5418384753136465 25.7534002100579116 Pb
25.7391706084954706 25.7874828562344405 25.8008885077126777 Pb
3.2433000281073361 3.2459812140997366 3.2571002597885750 Te
6.4489193117803136 6.4903599514029668 3.2241049595863114 Te
9.6846820793662385 9.6335421515594923 3.1862085314572877 Te
12.8912281250722049 12.8356215971607206 3.2363163347708697 Te
16.0624838375944599 16.0732145619924580 3.2228619256889557 Te
6.4302619081587045 3.2131465093339910 6.3928570691357027 Te
9.6545398771729225 6.4290783355912229 6.3930943887669436 Te
12.9082016539078097 9.6634316482871405 6.4837763706352849 Te
16.0563902722266398 12.8776488251018719 6.4592515130632719 Te
19.3583384993484842 16.1179100070463335 6.4088031929914724 Te
9.6377235197609661 3.1842114934527901 9.6370220021739375 Te
12.9143675907926507 6.4780725721347654 9.6715954120672460 Te
16.0987039748307339 9.6857491853046991 9.6180307014792170 Te
19.3668641105326174 12.8767829384101482 9.6856015433788674 Te
22.5427426717116290 16.0666456359724030 9.6270891922727966 Te
12.9060199986251618 3.2580677422407094 12.8592840838636899 Te
16.1034017720276594 6.4906492799430113 12.8755178614067383 Te
19.2969508725919781 9.7023325284764663 12.8699353232052136 Te
22.5195068622529178 12.8455045552872047 12.9058695329794340 Te
25.7504367144002373 16.0898861846228982 12.8359554264897895 Te
16.0668411668538376 3.2540680825217838 16.1120678094617489 Te
19.2968129559480488 6.4483763008109598 16.0609824883547745 Te
22.5867669991295088 9.6712086599362621 16.0789311448426595 Te
25.7293767930293811 12.8804670906294945 16.1383880926702439 Te
28.9444799611333465 16.1309074521031626 16.0944669670968707 Te
3.1736293409161043 6.4447384058833137 6.4579877966121426 Te
6.4762797823113010 9.6613180576834914 6.4055715879232249 Te
9.6260332361883716 12.8584367424781263 6.4152918667183370 Te
12.8847448729796294 16.0868970759506027 6.4884527028133068 Te
16.1126766285077316 19.3539783707235244 6.4028805029339741 Te
6.4253085648589972 6.4097162998078279 9.6972270683936728 Te
9.6880741784356825 9.6535435702389663 9.6199863847684046 Te
12.8782740886830762 12.8644874333999226 9.6150642438865965 Te
16.1313565195956947 16.0897835144382242 9.7005610620098093 Te
19.3313351391583019 19.3178179321882766 9.6126089707907099 Te
9.7002616995694595 6.4112712569699823 12.8712721999399662 Te
12.8572702707838644 9.6409063175125027 12.8441559683998019 Te
16.1369050627480561 12.9187267122738767 12.8825189501970101 Te
19.2906628330731209 16.0968017729708919 12.9196062284433406 Te
22.5549464287340236 19.3431998278940647 12.9267184543581379 Te
12.9281182612804777 6.4260966300009903 16.1156732180365729 Te
16.1476177752422529 9.6820014285267142 16.1113290778851166 Te
19.2859316081190499 12.8635527563212442 16.0752783854827328 Te
22.4998860216228174 16.1060779776286687 16.1263215669243252 Te
25.8050937359330845 19.3428935707505154 16.1242353096390758 Te
16.1509816728551527 6.4489621254188458 19.3339193282756945 Te
19.2917433435546286 9.6283339241650250 19.3034732775777442 Te
22.5883822114842516 12.8838026419435074 19.3460058844333211 Te
25.7285823189530234 16.0784708694514720 19.2982782139755784 Te
29.0278645849028791 19.3472718663995487 19.3140811490058049 Te
3.2076322055948729 9.6677542532160370 9.6137387279868403 Te
6.4155349216633413 12.8650133836455076 9.6222749383633204 Te
9.6297517347608004 16.1402502886733075 9.6529088069163311 Te
12.9264598170762088 19.3207047148825453 9.6847793075379833 Te
16.0795420709750942 22.5056047472042948 9.6839619994120500 Te
6.4174161144264446 9.6992049226923065 12.9052028666384864 Te
9.6312185539958399 12.8761469441227483 12.9214097011694591 Te
12.8859620315285213 16.0924630447031305 12.9309899595628846 Te
16.1030200145711753 19.3248619419555041 12.9321806348231156 Te
19.2785766545762520 22.5661363656206859 12.8805224296973311 Te
9.6773880716793066 9.6160606457468312 16.1159355651865503 Te
12.8554610198594705 12.8914007860058408 16.1439900867920088 Te
16.1335878249944287 16.0679947721856777 16.0842893314252642 Te
19.3429598830000344 19.3112161283725463 16.1471144052651141 Te
22.5850191527645876 22.5262948301448986 16.0804550686100924 Te
12.8906317916762401 9.6424743107801731 19.3687079102350594 Te
16.1067369810568515 12.8525520921551379 19.3633686087548824 Te
19.3098897787696728 16.0570749887417037 19.3080401449787225 Te
22.5444963410413166 19.3593531469977762 19.2886620405620022 Te
25.7239909914715241 22.5280831272559325 19.2984620732389729 Te
16.1224589394714037 9.6313164445910768 22.5093421395246764 Te
19.3721600817048625 12.8821818420027512 22.5332062133495974 Te
22.5514713824369153 16.0534407212488617 22.5470187897355814 Te
25.7303747463407007 19.3203042244580914 22.5073559777450072 Te
28.9976583621884174 22.4977228814447514 22.5293607706042494 Te
3.1763375580025617 12.8791939344887307 12.8590522978962429 Te
6.4125341771948099 16.1437861630261210 12.8815479981018317 Te
9.6184345452368039 19.3024749935371993 12.8962783779052028 Te
12.9103568868620044 22.5684529297745229 12.9154118762884149 Te
16.1223161857686392 25.8059940832443147 12.8625007786504817 Te
6.4814892995209457 12.8535417812331776 16.0958780146815634 Te
9.6958310148178377 16.1352890666397002 16.1192974992578542 Te
12.8755603500635871 19.2742794636420598 16.1099696233803691 Te
16.1334166757599604 22.5267820572765842 16.1383705041782655 Te
19.3619443386194305 25.7731976194892525 16.1332534674003547 Te
9.6339906034642286 12.8998459590138523 19.2855783302729478 Te
12.9269556877516223 16.1152581776205395 19.3417780527475536 Te
16.1090181237818797 19.3484570679018013 19.2805492196698864 Te
19.2933766461806364 22.5636460149764702 19.3581305950290528 Te
22.5373111276506108 25.7382969783930662 19.2811753464355178 Te
12.8636815492526182 12.8796350909978390 22.4974887129136718 Te
16.1501968447547242 16.1158812777939566 22.5350734865876774 Te
19.3334143642623744 19.3643032163752480 22.5170775851301244 Te
22.4999302805958763 22.5677384849191860 22.5439801950831225 Te
25.7926217994315188 25.7945530416460009 22.5720660002991700 Te
16.1011358187582303 12.8328609347875808 25.7565059696619230 Te
19.2920135476560048 16.1196548384542382 25.7995549633031303 Te
22.5810088706259009 19.3408389099361635 25.7359047243132508 Te
25.7271328155983170 22.5106812721907872 25.7613221510428261 Te
28.9832797582611761 25.7919991868171650 25.7227449180325962 Te
3.2505523933277258 16.0739878170160893 16.1305467990780329 Te
6.4819333085599560 19.3021737840871523 16.1224088254767999 Te
9.6229356473360319 22.5345290707844370 16.1329863413204855 Te
12.8482344827377428 25.7996512197752139 16.1129595398936054 Te
16.1153152747075623 28.9668102282142250 16.1476209427819590 Te
6.4522750190986677 16.1514359538558203 19.3256585900709297 Te
9.6235235456443888 19.3268756721975521 19.3554537183699225 Te
12.8605132901715749 22.5255966396306064 19.2821267333288802 Te
16.1261771930959625 25.7257752385384748 19.3018893157570375 Te
19.3280416358550582 28.9370447024475723 19.3367802892897416 Te
9.6142454043409202 16.0869605374571805 22.5421590623624510 Te
12.9258384924164638 19.3189945195004285 22.5198272727876727 Te
16.1198067366544819 22.5699616370090652 22.5047701473977888 Te
19.3708884076578300 25.7562692312487087 22.5568917470725943 Te
22.5859609793865630 28.9732052259918191 22.5195852524472606 Te
12.9182608674427577 16.1174033927330100 25.7330184781423199 Te
16.0644688584462187 19.2913321528270885 25.7678112296552939 Te
19.3185195855864222 22.5443724895884401 25.8141784681158590 Te
22.4995203497877228 25.7870874220405071 25.7599600825393935 Te
25.8024693338991540 28.9527112213368518 25.7610306933988689 Te
16.1295655364796851 16.0735088136271251 28.9545345876732760 Te
19.3558908620014911 19.3302532185606992 29.0222468686498942 Te
22.5611590554358621 22.5288706333849404 29.0294152095807760 Te
25.7832065922431823 25.7188102804245275 28.9767584868367862 Te
28.9589974347113994 28.9710233943578572 29.0253545356025455 Te
