Te125 Pb125
1.0
0.0000000000000000 16.1027568429597387 16.1027568429597387
16.1027568429597387 0.0000000000000000 16.1027568429597387
16.1027568429597387 16.1027568429597387 0.0000000000000000
Pb Te
125 125
cartesian
16.1027157336919515 32.1957219534534573 16.1007269943589648 Pb
3.2218506870819437 3.2173846838083682 0.0093959501351910 Pb
6.4386745654382622 22.5348260440149453 16.0992214212047848 Pb
9.6581093405425982 25.7557427213198729 16.1062634756623027 Pb
28.9851472790074141 28.9912654041422542 32.1977524433782918 Pb
3.2207685157711787 0.0099891054923804 3.2209644285932209 Pb
6.4498269518123976 19.3249095899775298 19.3279259670944867 Pb
9.6607616514431065 22.5352237213567577 19.3183458060586801 Pb
12.8746138776314627 9.6582484944974443 3.2260983921914428 Pb
16.1056166646524339 28.9862500343490694 19.3138127808211486 Pb
6.4407472799158851 0.0079627225589740 6.4471416691738606 Pb
9.6599803253913130 3.2301819281024358 6.4432124250137193 Pb
12.8780694728661729 22.5454378290188302 22.5348928292233452 Pb
16.0987079262598698 9.6549371216249078 6.4473066389782137 Pb
19.3233153432488862 12.8808909516105441 6.4510159596195935 Pb
9.6660802548762756 16.1070282284526662 25.7565265039160920 Pb
12.8840939245553407 3.2303441267709374 9.6623859822251141 Pb
16.1021397007034750 22.5433036409554610 25.7544455050899330 Pb
19.3202139521625469 9.6590650189198790 9.6708040887312929 Pb
22.5523732322219601 28.9898588169995115 25.7625289234298265 Pb
28.9757009775171710 16.0995855921002473 12.8842477164942792 Pb
16.0999352223756595 3.2182559742389958 12.8915204956798419 Pb
19.3149312763117251 6.4457257218197430 12.8851132173141742 Pb
22.5358075355716565 9.6645084412227824 12.8874032957736535 Pb
25.7682735228765551 28.9928114562263026 28.9801175738303627 Pb
0.0096748585890457 3.2230482549212915 3.2209546922092906 Pb
19.3167696939018789 6.4473065671334187 19.3276395255440647 Pb
6.4367516413635348 9.6534581583616301 3.2168238478146036 Pb
25.7577942864005180 12.8845859509953584 19.3304182826180906 Pb
28.9889480707118921 16.1094320379503877 19.3170188918908785 Pb
3.2276561564087674 3.2142800500475861 6.4379101592611025 Pb
6.4361664381566648 6.4497430732326846 6.4401140284918306 Pb
9.6639790773646546 9.6536405338127729 6.4466142861044720 Pb
12.8885687595902727 12.8776425509294974 6.4473227316271098 Pb
16.1025623647808409 16.0937534025191695 6.4367552967333488 Pb
22.5408695926527898 19.3305626347234742 9.6678535669822097 Pb
9.6543208424045694 6.4347264460339098 9.6592948348083318 Pb
12.8816144875002685 9.6658680965667720 9.6526046297613792 Pb
16.0998962503548775 12.8862747685233110 9.6529789772451036 Pb
19.3283360320899611 16.1044513470608877 9.6701305246238061 Pb
9.6687319189891117 3.2235177849185210 12.8757941613746869 Pb
12.8864134709097247 6.4321842707615993 12.8805460401939040 Pb
16.0994932069943921 9.6522081424999442 12.8825554144712857 Pb
19.3162456619441905 12.8892692790029351 12.8826777635992471 Pb
22.5488238313007301 16.0964089672877861 12.8881266807400436 Pb
28.9758223679144038 19.3273417160097445 16.1031952109699077 Pb
16.1003821455529597 6.4461516960201370 16.0944581185459406 Pb
19.3327907627595792 9.6587600357285837 16.1040628219608202 Pb
22.5349811046984385 12.8783516778368803 16.1002426977635906 Pb
25.7743017767059222 16.1024172592557164 16.1013228956214007 Pb
0.0083747434061425 6.4407513748368288 6.4356492779714012 Pb
3.2254650706175081 9.6654251740116095 6.4489535063669248 Pb
6.4444175907363821 12.8728134843788595 6.4402070419381179 Pb
25.7623943371348574 16.1060108690375650 22.5346213664669222 Pb
12.8782876553875933 19.3194337234673554 6.4494477378742969 Pb
3.2277622859106629 6.4421439806505392 9.6685038125918936 Pb
6.4367363841834413 9.6567416175729583 9.6691908438721246 Pb
9.6703955157044827 12.8773785134699601 9.6611172622694994 Pb
12.8906404780655564 16.0984350610861355 9.6584646051792404 Pb
16.1050194659901962 19.3159972589819411 9.6680907593741789 Pb
22.5415209690677081 22.5341510155616405 12.8816813827796146 Pb
9.6703474223790664 9.6575505753128930 12.8849599768956065 Pb
12.8750348611208416 12.8868201872513275 12.8769818041384259 Pb
16.1006260834294181 16.1122491759041679 12.8798912835597328 Pb
19.3212696268585340 19.3149645972224704 12.8770841198229338 Pb
9.6645505873162083 6.4373921163261372 16.0939340493241474 Pb
12.8851885656934861 9.6711933418427840 16.1024341334901102 Pb
16.0955988535357477 12.8873989854704227 16.0980887994902702 Pb
19.3280062181929040 16.0997175439572224 16.0944688157413722 Pb
22.5514503612326394 19.3193719313085808 16.1079419890817590 Pb
12.8835029443564846 6.4489096548175606 19.3294211984394266 Pb
16.0999955901505700 9.6522645897163954 19.3212557810185857 Pb
19.3193480770739008 12.8804250180727315 19.3323163917396741 Pb
22.5484338747425532 16.1096854856874216 19.3177341879713182 Pb
25.7697417242623033 19.3172600054888868 19.3173919597225670 Pb
16.1027620793439219 25.7617214048383971 9.6712856334950281 Pb
3.2236665535680191 12.8834029168225186 9.6710807570440558 Pb
6.4446411221381483 16.0935927954818361 9.6635249520384310 Pb
25.7565031186263944 19.3206079694792017 25.7589177788206669 Pb
12.8752389435045860 22.5391947356756930 9.6671044886818329 Pb
19.3271570476311325 25.7650172337627481 12.8914151909377761 Pb
6.4334837432368577 12.8772953561762833 12.8779815341953476 Pb
9.6684328054101893 16.0959181609188775 12.8849039293352376 Pb
12.8752361755759921 19.3240993414206699 12.8893330958420975 Pb
16.1000046794114056 22.5482816271995858 12.8907419312228502 Pb
22.5482562826400397 25.7679174527759329 16.1110256661271052 Pb
9.6535459183885646 12.8878265152042957 16.1043881605888899 Pb
12.8859195643675477 16.1104097359281013 16.0974995846734714 Pb
16.1051884801858805 19.3283497650969842 16.0944701139156372 Pb
19.3204222227355480 22.5534314666359066 16.1029805783668536 Pb
25.7562486353938311 25.7701614267794170 19.3238637681901011 Pb
12.8844990460780497 12.8740812176620540 19.3179476162685901 Pb
16.0954230174558539 16.1095191116552812 19.3240058687511080 Pb
19.3317076373537091 19.3193211401449005 19.3196267841391922 Pb
22.5452466926756188 22.5514693917245879 19.3169704922043231 Pb
12.8843209931767699 9.6670984610050450 22.5357427102846870 Pb
16.0940001957907874 12.8818943355364635 22.5390404180809796 Pb
19.3250959582763926 16.1011712784458965 22.5535698812110965 Pb
22.5438595736618943 19.3272468648232412 22.5346678985561120 Pb
25.7562799691897837 22.5446944638212798 22.5496206686580294 Pb
32.1981335416422496 28.9915920415852426 28.9862193880152788 Pb
19.3142482434339016 16.1061394279760002 28.9824176962727407 Pb
6.4501907952958026 19.3192488325543543 12.8812418136854632 Pb
25.7589719985750776 22.5480847967403690 28.9777121196845542 Pb
28.9759904952182694 25.7687381972525742 28.9840783895521952 Pb
3.2175955017327054 12.8906104787120839 16.1072976306758591 Pb
6.4475055190464996 16.0970688491093448 16.1079193143037571 Pb
9.6633419959657232 19.3195142023341226 16.1118539040656117 Pb
12.8835244069481742 22.5347172677602856 16.0989255845328465 Pb
16.1006525654350696 25.7715973749931493 16.0961290760851625 Pb
22.5479779939629950 28.9843997457424152 19.3324033850422836 Pb
9.6697155852076460 16.0984879566179124 19.3192107539532216 Pb
12.8894352811845447 19.3298796480988457 19.3254403736231950 Pb
16.0984074620340749 22.5470604126205991 19.3317247165875017 Pb
19.3243055214423123 25.7712056488749788 19.3305771470306809 Pb
9.6653187670921632 12.8894617665120901 22.5496833660045084 Pb
12.8836733779150414 16.0994375839706478 22.5531777226054899 Pb
16.0958174995604288 19.3164256190428461 22.5459751021935375 Pb
19.3278805994006397 22.5520482792228165 22.5473292309545315 Pb
22.5363985484105669 25.7707437845903797 22.5418033224957881 Pb
12.8897167379660580 12.8830609827492033 25.7578650321025435 Pb
16.1001222117350906 16.1108190108564884 25.7591137639063845 Pb
19.3198824855404503 19.3299293976550786 25.7577457933825400 Pb
22.5349799452385966 22.5432022945024428 25.7598590195249102 Pb
25.7672274258131466 25.7733474414459920 25.7679047367812970 Pb
3.2115537624546375 3.2165909222999023 3.2223838393190407 Te
6.4434848548377426 6.4314584712471206 3.2194052228664800 Te
9.6712187473069857 9.6599534482769478 3.2229231604150659 Te
12.8868537495888429 12.8877075323186769 3.2136144459475413 Te
16.1100374302678517 16.1095804901919166 3.2212077883507524 Te
6.4489190457308494 3.2226887625019760 6.4469625040710836 Te
9.6548093282705043 6.4437715654369958 6.4343184629664245 Te
12.8797725775605336 9.6532447464010680 6.4362691372799832 Te
16.0945430243832845 12.8871520622572948 6.4382629391902926 Te
19.3305108073320291 16.1040185933290196 6.4479240713664892 Te
9.6518171630557994 3.2188310237172155 9.6621784829631192 Te
12.8878839188695302 6.4329084563485663 9.6624345092819741 Te
16.1107344240196504 9.6600945266534293 9.6558295102196308 Te
19.3161661788511054 12.8756136538133337 9.6593005402505732 Te
22.5528977019630545 16.0984897706552665 9.6613309217327963 Te
12.8921444546250203 3.2196260124625660 12.8828057971811454 Te
16.0954792420205841 6.4359221484639804 12.8866996956669109 Te
19.3163623986939967 9.6555133239983952 12.8859533381470346 Te
22.5375239222700046 12.8825683596493263 12.8899338476494538 Te
25.7599515204163083 16.0939524271396870 12.8805943377711500 Te
16.1090325455906722 3.2275555573001613 16.0993572993097978 Te
19.3213152574587639 6.4366695556096358 16.1114961241151384 Te
22.5488837913312992 9.6702705888322260 16.1020402386890851 Te
25.7741748153282444 12.8843473479849369 16.1024752642517868 Te
28.9836024340081906 16.1123228685448581 16.1053340258912812 Te
3.2109670665747401 6.4390698013690724 6.4431048178055841 Te
6.4342564061790508 9.6669876355513402 6.4361347182722977 Te
9.6517549691757161 12.8808571703639601 6.4415376749786804 Te
12.8799200916157606 16.1114596347147661 6.4454660434240676 Te
16.1017784858738082 19.3331923430213521 6.4399422362132910 Te
6.4412798770370605 6.4420374538913219 9.6716087492224609 Te
9.6646043327893700 9.6698215772349592 9.6566954194041141 Te
12.8818087160870540 12.8892536506764905 9.6687368872625328 Te
16.1126243098623796 16.1018458297178135 9.6603112908971696 Te
19.3173835668479974 19.3253757632367886 9.6538679761105683 Te
9.6639253712500448 6.4333794309752665 12.8881377500149110 Te
12.8867570453363331 9.6696037478807320 12.8781946898905968 Te
16.1025490832947256 12.8899240529799179 12.8885600302240242 Te
19.3224978512031598 16.1049595390623175 12.8724848033011821 Te
22.5517083536406631 19.3242904760968983 12.8883236367516627 Te
12.8725155417003538 6.4420037819761617 16.1004561206421073 Te
16.0936640046736414 9.6575267409879721 16.1022228468822952 Te
19.3167539091052731 12.8746641918277760 16.1031693682226589 Te
22.5452710271620163 16.0975474531256424 16.0943384063548436 Te
25.7643103070403754 19.3321011193774304 16.0979950530423750 Te
16.0998935488054968 6.4447872391243060 19.3321527574437795 Te
19.3148641763351279 9.6563691894784700 19.3224318959742121 Te
22.5460698195682347 12.8832384561035589 19.3136103875473246 Te
25.7721114190950757 16.1090622397831851 19.3242801823030206 Te
28.9772098425199687 19.3185148487923115 19.3191944775039772 Te
3.2255797662061312 9.6531610183836936 9.6632611788865095 Te
6.4390091252203652 12.8730843562810708 9.6651785906735572 Te
9.6623977182088474 16.1110034722609612 9.6560469544743608 Te
12.8745102905120792 19.3281356862802696 9.6658349708982385 Te
16.1069270101852737 22.5419465212635366 9.6705394820218036 Te
6.4320324225251113 9.6633232839011853 12.8860711226156930 Te
9.6518603333808546 12.8838282152985002 12.8810018406415487 Te
12.8909464385029686 16.1022961306160006 12.8870411015374380 Te
16.1012321156317952 19.3167416650962522 12.8748192930659240 Te
19.3166238620410269 22.5489524434990543 12.8876260107307683 Te
9.6698494606912870 9.6602299145592259 16.1083073237666987 Te
12.8819625714743218 12.8905557094109078 16.1082536213715883 Te
16.0965754926337823 16.1088479373989628 16.1077256935994910 Te
19.3151431111493892 19.3184463653132141 16.1058702954764712 Te
22.5494571105369275 22.5510001777613418 16.0985521409301064 Te
12.8907037007853429 9.6664050472768484 19.3255904697776586 Te
16.1051900658631268 12.8836899185129408 19.3137230223578129 Te
19.3269191492139356 16.0954192976021098 19.3290633446799447 Te
22.5398093707340834 19.3151863373866135 19.3275071356740682 Te
25.7634274264066114 22.5509171674026305 19.3303241324399195 Te
16.1075355233276589 9.6655289882066420 22.5359760847203603 Te
19.3268091897367924 12.8807932918815347 22.5345995103613390 Te
22.5495077648474442 16.0982261172670107 22.5369624405735713 Te
25.7597669885972884 19.3165103476023532 22.5495360825844244 Te
28.9836512889471862 22.5339567878320963 22.5433949200308277 Te
3.2212147832734437 12.8887127370315184 12.8897695614631171 Te
6.4376327414422176 16.1100396952688492 12.8881147206646069 Te
9.6652335265398044 19.3174140564127157 12.8749634662075980 Te
12.8761867292298025 22.5373914223990184 12.8775217106723545 Te
16.0940500228150007 25.7630906452834338 12.8774675337010613 Te
6.4347286544451894 12.8813586036350092 16.1104154250218521 Te
9.6704772858986772 16.1006506251130475 16.0985478835987763 Te
12.8780587030621696 19.3172113002592098 16.1095119862173313 Te
16.1116438580302344 22.5484436771651602 16.1026730716394937 Te
19.3142791412551063 25.7638913516469401 16.0984900047339679 Te
9.6630654192432761 12.8829197717875790 19.3134341053393364 Te
12.8755321292594047 16.0959551529854821 19.3263419350984798 Te
16.0984553171533378 19.3295600579189184 19.3298206068665728 Te
19.3205142522597555 22.5342886419226858 19.3240769332475502 Te
22.5400394296644890 25.7652970851296601 19.3141092326622754 Te
12.8789753365289439 12.8902178941794112 22.5388229802682787 Te
16.1081473930024899 16.0950998231640270 22.5403507316024871 Te
19.3178650490165822 19.3211161650621861 22.5519569200651375 Te
22.5347550412808317 22.5476171174798452 22.5421309143972550 Te
25.7621322795767078 25.7679772578129160 22.5347992762619000 Te
16.0953075175259386 12.8883085404539592 25.7671054124909915 Te
19.3325927852203598 16.1064143917022875 25.7650582732189974 Te
22.5492350193442839 19.3251001081341158 25.7561711817462751 Te
25.7632505159999781 22.5340069613648524 25.7631542470740094 Te
28.9875413628923226 25.7554629051275086 25.7680552647980008 Te
3.2132345120181629 16.1058584139696457 16.0966869280386611 Te
6.4494961603471612 19.3264780854052454 16.0983406967489735 Te
9.6582975361995302 22.5344590257021196 16.1021543341451583 Te
12.8730261634831837 25.7607448653187241 16.1042734457634893 Te
16.0984326484459146 28.9762130582927391 16.1049367072098448 Te
6.4332571875165323 16.1070925619966232 19.3277409184955360 Te
9.6604382757873921 19.3274209011226361 19.3142745222758592 Te
12.8774639269205124 22.5502236471945281 19.3293923202273099 Te
16.1097300363701734 25.7653681356910518 19.3162048062561276 Te
19.3267662643754399 28.9769755575520875 19.3183834233371954 Te
9.6689829333580235 16.0960376386781121 22.5427916006998075 Te
12.8730936900705792 19.3191936822068016 22.5436450220134574 Te
16.1126277901235682 22.5446401665809049 22.5452578243650947 Te
19.3323809279562937 25.7602397417586602 22.5443951633745634 Te
22.5509822353471066 28.9779499344630089 22.5435525468980558 Te
12.8735067078652570 16.1057085472509129 25.7683630245334143 Te
16.1049045919704099 19.3186909692464326 25.7558046575668058 Te
19.3314069802117814 22.5471137792697505 25.7692915362245714 Te
22.5432769724483180 25.7595897970660346 25.7556692632657978 Te
25.7545700745291128 28.9866590874649432 25.7638835343317965 Te
16.1039789088995065 16.1045176155077208 28.9751947058040713 Te
19.3242320378033590 19.3253751748387472 28.9752219781226188 Te
22.5440050881212315 22.5485504679934330 28.9761320059734970 Te
25.7736661870209716 25.7640393297149615 28.9811937017217431 Te
28.9947075367600782 28.9841104599390142 28.9870371756843852 Te
