Te125 Pb125
1.0
0.0000000000000000 16.1027568429597387 16.1027568429597387
16.1027568429597387 0.0000000000000000 16.1027568429597387
16.1027568429597387 16.1027568429597387 0.0000000000000000
Pb Te
125 125
cartesian
16.1443355324662647 32.1280823960358006 16.0833762360066501 Pb
19.2835130566708486 19.3559042758951172 32.1316635522883871 Pb
6.5018454835868855 22.5038210358254425 16.1557401773989966 Pb
9.7462843621681259 25.7877377217899735 16.1225957280555754 Pb
28.9097441059833997 12.9257347107240843 16.0793597007319384 Pb
3.1562673378551094 0.0511715468287966 3.1838221406205700 Pb
6.3615736665889724 3.2574765164027051 3.2002619528916059 Pb
9.7270701398088946 22.5364477243373038 19.2619420410267743 Pb
12.9669278628841376 25.7768320649878575 19.2955984162595335 Pb
16.1378948538499145 28.9063743542730158 19.2970545974457366 Pb
6.5270926532559370 16.0915074985651465 22.5197932845289159 Pb
9.6890494981404345 19.2502689125778339 22.5887455833361486 Pb
12.9527301633767706 22.5997113453310128 22.5464765565747989 Pb
16.1820763356961841 25.7219900350313821 22.5468402096969989 Pb
19.4064829616402399 29.0107000843194029 22.5666527435480155 Pb
25.7564884525366153 16.0820354697128920 9.7488771459931076 Pb
12.8344849266358381 3.2363251224549683 9.7363129164630706 Pb
16.0673728108054199 6.3703314165641407 9.7045422212186754 Pb
19.3216221975777458 25.7541734186996791 25.6750110027868104 Pb
22.4895947285115270 12.9292904413418359 9.6074477245795524 Pb
28.9787868270453330 32.1348844269846197 29.0404003106361586 Pb
16.0919393388195928 19.3464670500446410 28.8986683441669712 Pb
19.2335981295339131 6.4388617362148954 12.8890668954320802 Pb
22.6267095443642923 25.7994184704935705 28.9881805231942025 Pb
25.7243873357641775 12.9170774817151539 12.8095277370042719 Pb
16.0374554613381619 3.2274871858058374 19.2617645360204968 Pb
19.3186989287041513 6.5124166902159466 19.2685992121587724 Pb
6.4902646781040234 9.6699564738662911 3.2954791621605337 Pb
25.6951754885589594 12.8974947587198034 19.2678763719815045 Pb
12.8917551717440979 16.0314920661426825 3.1664206484301349 Pb
19.3102682355698789 19.3524741628522037 6.5252413508587708 Pb
6.3513194511229418 6.4430277388496666 6.4351650682234780 Pb
9.5989325325951000 9.6147691767768961 6.3967427587067123 Pb
12.9065069475233063 12.9169281042735271 6.5204990681753303 Pb
16.1643713904465613 16.0463531288122851 6.4746030143225406 Pb
22.5065218516568137 19.2486625030797320 9.6279804923943875 Pb
9.6688619729094896 6.5158317040202629 9.6120191567282944 Pb
12.8606451271298887 9.7366648629589641 9.6168373931142046 Pb
16.1118618688639543 12.8439357292444143 9.5807064368070876 Pb
19.2776825984659048 16.1410790740285179 9.7291056442049815 Pb
9.7281271065690671 3.1794386519424029 12.8375839022838960 Pb
12.8070661078243369 6.4088461902024054 12.9198032239318135 Pb
16.1062151279773538 9.5877302230937484 12.9334236335883368 Pb
19.3713894847277466 12.8074424341866440 12.8963008279512081 Pb
22.4632548147274065 16.0714008172348422 12.9070986751048196 Pb
12.9313013672082189 3.2890591475450965 16.0711929786667262 Pb
16.0653862883971108 6.5067131698256180 16.0537801874976971 Pb
19.3589125411373715 9.7160449835568699 16.0405156658423103 Pb
22.5152787422267515 12.8959399020863774 16.1869857049917769 Pb
25.6987673902801070 16.0772514650841920 16.1587961053810787 Pb
0.0800127496136178 6.4782048108029393 6.4590302588317856 Pb
3.1565302076374229 9.6066150274573623 6.4722795043012020 Pb
22.4547862104161027 12.8696796670778291 22.5408530943019052 Pb
9.6692079272090989 16.1351288137331181 6.5247388256266401 Pb
12.9116140143691389 19.2602282470138348 6.4981645970282198 Pb
19.3034620786259943 22.5204915317555638 9.7462712749699758 Pb
6.4292307750095450 9.7287560123117132 9.6028630294684483 Pb
9.5799835913785447 12.8446002651552735 9.6656259212503439 Pb
12.8598436392690179 16.1896371169150157 9.6544592236731201 Pb
16.0273622838730816 19.3660959844430707 9.6374700831343620 Pb
6.3934917677591061 6.4457622345844197 12.8059723800162821 Pb
9.5949919353335673 9.6296894974367451 12.8308788843227379 Pb
12.8594045797905068 12.9300061541695186 12.9549736969444655 Pb
16.1510138523828992 16.0522230992079962 12.9389293827659806 Pb
19.3423177587326407 19.3774175352583420 12.9515655363918682 Pb
9.6602252620237614 6.4180841293978874 16.0157620034511474 Pb
12.8142481152542516 9.6237441052067805 16.0575392667402355 Pb
16.1325573291031148 12.8011692858549431 16.1281550156682023 Pb
19.2963308834623000 16.0388052825699816 16.1600492656076966 Pb
22.4555219525877021 19.3064000699373572 16.0995044123398827 Pb
12.8190657554225567 6.4832425158894900 19.2749593238482433 Pb
16.0608393468411172 9.5981154083005329 19.2752899083508673 Pb
19.2675245453518791 12.8310432399886558 19.2746193179655450 Pb
22.5977819243604863 16.1676290647570156 19.2919398256632633 Pb
25.7371682970662903 19.3958209819926068 19.3691310885129582 Pb
32.1160987864941134 25.7646640088981833 25.7746535910365999 Pb
19.2734813647606842 12.9536692519842447 25.7869988620445270 Pb
22.5863274944770858 16.1480861114645506 25.6992823554068011 Pb
25.7059638310963656 19.2888460728104079 25.7052814684990381 Pb
28.9598062982484663 22.6294075457759192 25.7766060412022746 Pb
19.2383975429840071 25.7348221487638469 12.8860370901655887 Pb
6.4964882287452372 12.8357740067510591 12.8285718455565281 Pb
9.6846282774823038 16.1516616669145137 12.9541812038073409 Pb
12.8898989817905054 19.4048090905767374 12.9196008840016106 Pb
16.1270125569680829 22.4967535974319617 12.8094546205534776 Pb
22.4541144975594307 25.7672387762514816 16.0966067581234142 Pb
9.6513171337909043 12.9516804026359456 16.1590274512052332 Pb
12.8065173572685644 16.1447327958065792 16.1274414193704025 Pb
16.0983155483850240 19.3500020078058128 16.1885922444211658 Pb
19.2898404583744849 22.6264744693995645 16.1151942691605896 Pb
9.6201011801930232 9.6838905742594772 19.2466342665319843 Pb
12.8932325837595858 12.7960488742416363 19.3468760522071932 Pb
16.0485528465939566 16.0526939486054729 19.3748410494984924 Pb
19.3555193702244068 19.2397830634533769 19.3325813389699697 Pb
22.5796349741703892 22.6126261883501911 19.3690386694325909 Pb
12.9434885153967798 9.7166913366035654 22.5075926240395390 Pb
16.0795823331942245 12.9031882334923544 22.6282554681752757 Pb
19.3089406360908029 16.0548344645040402 22.6186728036975282 Pb
22.5959492658681356 19.3330723870363208 22.6166010780538969 Pb
25.8513150314670916 22.5456757042590468 22.5205275828482172 Pb
16.1189031286528710 12.9692286980862317 29.0012796698078255 Pb
19.2570149293002402 16.0658838258404941 28.9365311152275027 Pb
6.4546321594289680 19.3759763581177715 12.9539203338531763 Pb
9.6481484281847329 22.5303703482814086 12.9701579461725842 Pb
12.9017383362632465 25.8351567043883072 12.9342967919101532 Pb
19.2564707762834146 28.9371514378750092 16.0660570193534120 Pb
6.4549540292105814 16.0493088878370642 16.1738304512992315 Pb
9.7000575442589181 19.2852244249236477 16.0308207525131010 Pb
12.8771691514535682 22.6218192313131894 16.0580698399160688 Pb
16.1032497443400295 25.6983261209212799 16.1638514628618495 Pb
22.5084188255196196 28.9668282477075039 19.4040244331598402 Pb
9.7215139637414012 16.1556057978715373 19.2817897172500530 Pb
12.8243519939365704 19.3007356059823607 19.2581664255782741 Pb
16.0583413909423030 22.6162149963691874 19.3531739337916484 Pb
19.2661478078221542 25.8125963642150822 19.3734166338032914 Pb
25.7062841889535001 29.0336538774084296 22.5923406256575703 Pb
12.8584591294070076 16.0259497943803630 22.5034023386468576 Pb
16.0793198365803818 19.2470422777831303 22.5022156840917162 Pb
19.2559041224772258 22.4855067976995784 22.5315452974979493 Pb
22.5985592429026880 25.6957718674679256 22.5637749866616559 Pb
29.0131776078695331 29.0274816970257490 25.8385459588840227 Pb
16.0371405816792603 16.0941663878684480 25.7034133230695261 Pb
19.3058378226526912 19.3128578166163010 25.8520783586289546 Pb
22.4717879109369179 22.5559167850797948 25.7118724075787917 Pb
25.7824807853385458 25.8155739878234272 25.8362150185118651 Pb
3.1311845754803409 3.2283211438051582 3.2278456733623493 Te
6.4580716268557286 6.4758220710581984 3.1392702229391594 Te
9.6211414200042427 9.6377051778255627 3.2972662376956867 Te
12.8693464053976161 12.7971000160491357 3.1942510775366788 Te
16.1722450346789408 16.0459550431905669 3.2272556026703656 Te
6.4105867661988833 3.1759508646408352 6.5130719706253366 Te
9.6098846728940650 6.5095546136613454 6.4140053862835780 Te
12.9151474531604009 9.7191286142518951 6.5020248752673826 Te
16.1876510287756545 12.8709343851397922 6.4134271204379658 Te
19.2646280680383732 16.1416083684095319 6.4972026456283931 Te
9.6460092171029590 3.3091752391582046 9.6626773478139167 Te
12.9287179018483176 6.3893403417953989 9.7187264152920498 Te
16.1731985028336211 9.6376255855279069 9.6110517069304660 Te
19.3435409017259197 12.9119974434491720 9.5791733393719856 Te
22.6117997843520406 16.1502029691116640 9.6265400948215891 Te
12.8096473919237788 3.2416487403181282 12.8333155410655753 Te
16.1351818653252614 6.5220813510706019 12.8600451039380417 Te
19.4099053752173596 9.6827913864788613 12.8946210536753334 Te
22.4924126013143670 12.9319528059792113 12.9367802979303477 Te
25.7219147830358708 16.1172051170770132 12.8041969922914483 Te
16.1348268162320920 3.2986941275956965 16.1338249299557610 Te
19.3755323998976081 6.4006580825977650 16.0416269479245130 Te
22.5012400151677099 9.7293221479257497 16.0614699351939301 Te
25.6878395536994901 12.9293959900526598 16.0996141225422207 Te
29.0685082924136822 16.1230787956984791 16.1293479746353050 Te
3.1538171865878804 6.4381031988696620 6.5014148563818601 Te
6.4493576937253065 9.7454100633200440 6.4092155098294565 Te
9.6763306216369234 12.8032081185804607 6.4816492248343636 Te
12.9547372741389495 16.1543838019305284 6.4542858752543655 Te
16.1591581861404592 19.3840624885571557 6.4060626699329219 Te
6.4996836773711077 6.3943151225760264 9.7114455966762741 Te
9.6210184414612954 9.5907306137966870 9.6239897848447846 Te
12.9083470773808244 12.8933121322533530 9.5762535276599898 Te
16.0888623106341555 16.1791805978216274 9.7071112467359058 Te
19.2768655320961422 19.3656061308882492 9.7261053551414456 Te
9.6148456642702698 6.5125962139917171 12.9104482181748033 Te
12.8385044086258358 9.7313197818072581 12.9187692602235185 Te
16.1124048533834596 12.9572734912399206 12.8335052819888134 Te
19.2721482489056939 16.1382111999767730 12.9472104494894715 Te
22.5622436880099606 19.3885113409199228 12.9414555924988726 Te
12.8564616891340080 6.4667902353766520 16.1850818692788039 Te
16.1854777512045551 9.6785284224210102 16.0715717699774387 Te
19.2608259237273813 12.8290884876309548 16.0656819265304414 Te
22.4731951151798057 16.0984670669532974 16.1583277995215120 Te
25.7372000831056340 19.3669698190577186 16.0289108354734964 Te
16.0621589359771555 6.3673720835591432 19.3551767017057585 Te
19.3944600577179607 9.6795706424412451 19.2711889972344323 Te
22.5826074241265218 12.8577093218024494 19.2458579494722528 Te
25.7732411018560335 16.0758354627593008 19.4087322578382739 Te
28.9332946856141149 19.3386393669376169 19.3953874145693348 Te
3.1881292562388990 9.6658357219118241 9.5778011349456005 Te
6.4654252692062339 12.9396442380768271 9.5967757360398505 Te
9.5968053135312861 16.0413830717725929 9.6729631444038642 Te
12.9204369881782402 19.2551895368640338 9.6169529032130523 Te
16.1477525980698751 22.5012567784809505 9.5963824939330316 Te
6.3881668243471292 9.6252475035040952 12.8191789050246534 Te
9.6092889511761648 12.9480049026657511 12.8501379546724159 Te
12.9615095854191757 16.1383538616573468 12.9055230692307177 Te
16.0333624523711471 19.3791706706647133 12.8950040765056144 Te
19.4005913043217397 22.5624013373507530 12.9244372966297689 Te
9.5906695361053806 9.7022882040914080 16.0652060650346371 Te
12.8920662044337071 12.8498172646412243 16.1861461100945121 Te
16.1673066217073327 16.0811002285137761 16.0438983931468542 Te
19.3716267837377671 19.3103785011524884 16.0279361361273978 Te
22.6120696395644245 22.5042896520086870 16.0593793305690191 Te
12.8146688116580538 9.6170951855450575 19.2838962613601694 Te
16.1137649034138093 12.7969713421325935 19.3500283408019698 Te
19.3621961568603282 16.0223809664797123 19.3345974183324572 Te
22.5918970800989243 19.2477581675716429 19.3141109591000593 Te
25.7217685338940534 22.5891282874902473 19.2582515547696929 Te
16.1893809518444343 9.6372700569575045 22.5451564699450628 Te
19.3242495891171053 12.8953996863487461 22.6328821984969508 Te
22.4897341132449284 16.1746556414583793 22.5448578824269319 Te
25.7567416194566050 19.3677547148189433 22.4659770420768474 Te
29.0078470928735186 22.5049438776359061 22.4660016637411282 Te
3.1884898985256722 12.9652079252914003 12.8686904724120694 Te
6.4497234370393626 16.1443386866372514 12.9615568058650084 Te
9.6931553322841353 19.3983482955202646 12.9206327892162314 Te
12.9665451803473353 22.5472492926065833 12.9134356495946889 Te
16.1559360938216621 25.8082292303695198 12.9401012900405306 Te
6.4273131711485156 12.9497575869160464 16.0449073835083027 Te
9.6570351401706294 16.1610894565090675 16.1711379174851047 Te
12.9059435846487141 19.2552856953408487 16.0488176233821669 Te
16.1338079828587908 22.4667094321610605 16.1371615138233899 Te
19.4119846643759715 25.7789257149699722 16.0976766583505686 Te
9.7420650768364450 12.8993702169958198 19.2867097506058371 Te
12.9346071378810237 16.1748351418918901 19.3359091831052581 Te
16.1464286360813460 19.3830227956329324 19.2720545001392551 Te
19.2866274137439291 22.5028383312466218 19.2520918074644527 Te
22.4642595507534395 25.7894326882135587 19.3570387299968161 Te
12.7930647971008895 12.8723620832773591 22.5514125469937419 Te
16.0285437681007181 16.0519368524135224 22.5469817718179506 Te
19.2951242309891846 19.3930110281910117 22.4943905939785935 Te
22.4543692316861936 22.5522417394262291 22.5392533953094372 Te
25.7224138750110605 25.8134030079947578 22.4811218408783233 Te
16.1864248049636537 12.8592213002116242 25.7883149206329350 Te
19.3449429485872493 16.1193407170363656 25.6786384981817335 Te
22.4711745324007381 19.2858907601776792 25.7267703035858588 Te
25.8306836892571248 22.5772610229852937 25.8153252638135484 Te
28.9810671355891252 25.6772203007713884 25.7863795278159316 Te
3.2113947598888295 16.0677578505679541 16.1851657444729717 Te
6.5177348482387742 19.2764374334558468 16.0972206243979663 Te
9.5855403311432088 22.5793161466197105 16.1351532193759297 Te
12.8423722582701672 25.7036167462631298 16.1558358391923207 Te
16.0906850125746033 28.8957894155630370 16.1011869696990217 Te
6.4493499477485070 16.0823712351429506 19.2360361626938499 Te
9.6340818444746574 19.3261500984766172 19.2376828993744731 Te
12.9359851625076132 22.5893400780926932 19.3793373954640735 Te
16.1359338337551108 25.7862732872968863 19.4040629354654897 Te
19.2542779044194390 29.0235131182992845 19.2803122531176214 Te
9.5775337213985168 16.0814482566778523 22.5677280757576888 Te
12.9359141417229182 19.3932270943828868 22.5257839370133581 Te
16.0924758208576755 22.5413937264405604 22.4544827366658524 Te
19.3740665818011522 25.7538544512008514 22.6174268840864627 Te
22.5155010871417502 29.0567214057110874 22.5901891507117014 Te
12.9525212394173987 16.1438618472799611 25.8027002658530620 Te
16.0697180617274142 19.2446792752886324 25.7931499347445374 Te
19.3234541939254854 22.4541672388335058 25.7569770668792373 Te
22.5583344115708400 25.6760782691855027 25.7550398773636644 Te
25.8313794050634407 28.9307986532160157 25.7383049466081246 Te
16.0676092632637229 16.1171879440532386 28.9033756090795428 Te
19.3482547495633597 19.2424421141486448 28.9543299074968417 Te
22.4673804235137133 22.5829294090266330 29.0118786148483352 Te
25.7171933972295719 25.7006346731610051 29.0274251187378596 Te
28.9701222157652545 28.9107858161012601 29.0337231422944200 Te
