Sr64 Ti64 O192
1.0
15.6329136064995993 0.0000000000000000 0.0000000000000000
0.0000000000000000 15.6329136064995993 0.0000000000000000
0.0000000000000000 0.0000000000000000 15.6329136064995993
Sr Ti O
64 64 192
direct
0.0000000000000000 0.0000000000000000 0.0000000000000000 Sr
0.0000000000000000 0.0000000000000000 0.2500000000000000 Sr
0.0000000000000000 0.0000000000000000 0.4999999999999999 Sr
0.0000000000000000 0.0000000000000000 0.7500000000000000 Sr
0.0000000000000000 0.2500000000000000 0.0000000000000000 Sr
0.0000000000000000 0.2500000000000000 0.2500000000000000 Sr
0.0000000000000000 0.2500000000000000 0.4999999999999999 Sr
0.0000000000000000 0.2500000000000000 0.7500000000000000 Sr
0.0000000000000000 0.4999999999999999 0.0000000000000000 Sr
0.0000000000000000 0.4999999999999999 0.2500000000000000 Sr
0.0000000000000000 0.4999999999999999 0.4999999999999999 Sr
0.0000000000000000 0.4999999999999999 0.7500000000000000 Sr
0.0000000000000000 0.7500000000000000 0.0000000000000000 Sr
0.0000000000000000 0.7500000000000000 0.2500000000000000 Sr
0.0000000000000000 0.7500000000000000 0.4999999999999999 Sr
0.0000000000000000 0.7500000000000000 0.7500000000000000 Sr
0.2500000000000000 0.0000000000000000 0.0000000000000000 Sr
0.2500000000000000 0.0000000000000000 0.2500000000000000 Sr
0.2500000000000000 0.0000000000000000 0.4999999999999999 Sr
0.2500000000000000 0.0000000000000000 0.7500000000000000 Sr
0.2500000000000000 0.2500000000000000 0.0000000000000000 Sr
0.2500000000000000 0.2500000000000000 0.2500000000000000 Sr
0.2500000000000000 0.2500000000000000 0.4999999999999999 Sr
0.2500000000000000 0.2500000000000000 0.7500000000000000 Sr
0.2500000000000000 0.4999999999999999 0.0000000000000000 Sr
0.2500000000000000 0.4999999999999999 0.2500000000000000 Sr
0.2500000000000000 0.4999999999999999 0.4999999999999999 Sr
0.2500000000000000 0.4999999999999999 0.7500000000000000 Sr
0.2500000000000000 0.7500000000000000 0.0000000000000000 Sr
0.2500000000000000 0.7500000000000000 0.2500000000000000 Sr
0.2500000000000000 0.7500000000000000 0.4999999999999999 Sr
0.2500000000000000 0.7500000000000000 0.7500000000000000 Sr
0.4999999999999999 0.0000000000000000 0.0000000000000000 Sr
0.4999999999999999 0.0000000000000000 0.2500000000000000 Sr
0.4999999999999999 0.0000000000000000 0.4999999999999999 Sr
0.4999999999999999 0.0000000000000000 0.7500000000000000 Sr
0.4999999999999999 0.2500000000000000 0.0000000000000000 Sr
0.4999999999999999 0.2500000000000000 0.2500000000000000 Sr
0.4999999999999999 0.2500000000000000 0.4999999999999999 Sr
0.4999999999999999 0.2500000000000000 0.7500000000000000 Sr
0.4999999999999999 0.4999999999999999 0.0000000000000000 Sr
0.4999999999999999 0.4999999999999999 0.2500000000000000 Sr
0.4999999999999999 0.4999999999999999 0.4999999999999999 Sr
0.4999999999999999 0.4999999999999999 0.7500000000000000 Sr
0.4999999999999999 0.7500000000000000 0.0000000000000000 Sr
0.4999999999999999 0.7500000000000000 0.2500000000000000 Sr
0.4999999999999999 0.7500000000000000 0.4999999999999999 Sr
0.4999999999999999 0.7500000000000000 0.7500000000000000 Sr
0.7500000000000000 0.0000000000000000 0.0000000000000000 Sr
0.7500000000000000 0.0000000000000000 0.2500000000000000 Sr
0.7500000000000000 0.0000000000000000 0.4999999999999999 Sr
0.7500000000000000 0.0000000000000000 0.7500000000000000 Sr
0.7500000000000000 0.2500000000000000 0.0000000000000000 Sr
0.7500000000000000 0.2500000000000000 0.2500000000000000 Sr
0.7500000000000000 0.2500000000000000 0.4999999999999999 Sr
0.7500000000000000 0.2500000000000000 0.7500000000000000 Sr
0.7500000000000000 0.4999999999999999 0.0000000000000000 Sr
0.7500000000000000 0.4999999999999999 0.2500000000000000 Sr
0.7500000000000000 0.4999999999999999 0.4999999999999999 Sr
0.7500000000000000 0.4999999999999999 0.7500000000000000 Sr
0.7500000000000000 0.7500000000000000 0.0000000000000000 Sr
0.7500000000000000 0.7500000000000000 0.2500000000000000 Sr
0.7500000000000000 0.7500000000000000 0.4999999999999999 Sr
0.7500000000000000 0.7500000000000000 0.7500000000000000 Sr
0.1250000000000000 0.1250000000000000 0.1250000000000000 Ti
0.1250000000000000 0.1250000000000000 0.3750000000000000 Ti
0.1250000000000000 0.1250000000000000 0.6250000000000000 Ti
0.1250000000000000 0.1250000000000000 0.8750000000000000 Ti
0.1250000000000000 0.3750000000000000 0.1250000000000000 Ti
0.1250000000000000 0.3750000000000000 0.3750000000000000 Ti
0.1250000000000000 0.3750000000000000 0.6250000000000000 Ti
0.1250000000000000 0.3750000000000000 0.8750000000000000 Ti
0.1250000000000000 0.6250000000000000 0.1250000000000000 Ti
0.1250000000000000 0.6250000000000000 0.3750000000000000 Ti
0.1250000000000000 0.6250000000000000 0.6250000000000000 Ti
0.1250000000000000 0.6250000000000000 0.8750000000000000 Ti
0.1250000000000000 0.8750000000000000 0.1250000000000000 Ti
0.1250000000000000 0.8750000000000000 0.3750000000000000 Ti
0.1250000000000000 0.8750000000000000 0.6250000000000000 Ti
0.1250000000000000 0.8750000000000000 0.8750000000000000 Ti
0.3750000000000000 0.1250000000000000 0.1250000000000000 Ti
0.3750000000000000 0.1250000000000000 0.3750000000000000 Ti
0.3750000000000000 0.1250000000000000 0.6250000000000000 Ti
0.3750000000000000 0.1250000000000000 0.8750000000000000 Ti
0.3750000000000000 0.3750000000000000 0.1250000000000000 Ti
0.3750000000000000 0.3750000000000000 0.3750000000000000 Ti
0.3750000000000000 0.3750000000000000 0.6250000000000000 Ti
0.3750000000000000 0.3750000000000000 0.8750000000000000 Ti
0.3750000000000000 0.6250000000000000 0.1250000000000000 Ti
0.3750000000000000 0.6250000000000000 0.3750000000000000 Ti
0.3750000000000000 0.6250000000000000 0.6250000000000000 Ti
0.3750000000000000 0.6250000000000000 0.8750000000000000 Ti
0.3750000000000000 0.8750000000000000 0.1250000000000000 Ti
0.3750000000000000 0.8750000000000000 0.3750000000000000 Ti
0.3750000000000000 0.8750000000000000 0.6250000000000000 Ti
0.3750000000000000 0.8750000000000000 0.8750000000000000 Ti
0.6250000000000000 0.1250000000000000 0.1250000000000000 Ti
0.6250000000000000 0.1250000000000000 0.3750000000000000 Ti
0.6250000000000000 0.1250000000000000 0.6250000000000000 Ti
0.6250000000000000 0.1250000000000000 0.8750000000000000 Ti
0.6250000000000000 0.3750000000000000 0.1250000000000000 Ti
0.6250000000000000 0.3750000000000000 0.3750000000000000 Ti
0.6250000000000000 0.3750000000000000 0.6250000000000000 Ti
0.6250000000000000 0.3750000000000000 0.8750000000000000 Ti
0.6250000000000000 0.6250000000000000 0.1250000000000000 Ti
0.6250000000000000 0.6250000000000000 0.3750000000000000 Ti
0.6250000000000000 0.6250000000000000 0.6250000000000000 Ti
0.6250000000000000 0.6250000000000000 0.8750000000000000 Ti
0.6250000000000000 0.8750000000000000 0.1250000000000000 Ti
0.6250000000000000 0.8750000000000000 0.3750000000000000 Ti
0.6250000000000000 0.8750000000000000 0.6250000000000000 Ti
0.6250000000000000 0.8750000000000000 0.8750000000000000 Ti
0.8750000000000000 0.1250000000000000 0.1250000000000000 Ti
0.8750000000000000 0.1250000000000000 0.3750000000000000 Ti
0.8750000000000000 0.1250000000000000 0.6250000000000000 Ti
0.8750000000000000 0.1250000000000000 0.8750000000000000 Ti
0.8750000000000000 0.3750000000000000 0.1250000000000000 Ti
0.8750000000000000 0.3750000000000000 0.3750000000000000 Ti
0.8750000000000000 0.3750000000000000 0.6250000000000000 Ti
0.8750000000000000 0.3750000000000000 0.8750000000000000 Ti
0.8750000000000000 0.6250000000000000 0.1250000000000000 Ti
0.8750000000000000 0.6250000000000000 0.3750000000000000 Ti
0.8750000000000000 0.6250000000000000 0.6250000000000000 Ti
0.8750000000000000 0.6250000000000000 0.8750000000000000 Ti
0.8750000000000000 0.8750000000000000 0.1250000000000000 Ti
0.8750000000000000 0.8750000000000000 0.3750000000000000 Ti
0.8750000000000000 0.8750000000000000 0.6250000000000000 Ti
0.8750000000000000 0.8750000000000000 0.8750000000000000 Ti
0.1250000000000000 0.0000000000000000 0.1250000000000000 O
0.1250000000000000 0.0000000000000000 0.3750000000000000 O
0.1250000000000000 0.0000000000000000 0.6250000000000000 O
0.1250000000000000 0.0000000000000000 0.8750000000000000 O
0.1250000000000000 0.2500000000000000 0.1250000000000000 O
0.1250000000000000 0.2500000000000000 0.3750000000000000 O
0.1250000000000000 0.2500000000000000 0.6250000000000000 O
0.1250000000000000 0.2500000000000000 0.8750000000000000 O
0.1250000000000000 0.4999999999999999 0.1250000000000000 O
0.1250000000000000 0.4999999999999999 0.3750000000000000 O
0.1250000000000000 0.4999999999999999 0.6250000000000000 O
0.1250000000000000 0.4999999999999999 0.8750000000000000 O
0.1250000000000000 0.7500000000000000 0.1250000000000000 O
0.1250000000000000 0.7500000000000000 0.3750000000000000 O
0.1250000000000000 0.7500000000000000 0.6250000000000000 O
0.1250000000000000 0.7500000000000000 0.8750000000000000 O
0.3750000000000000 0.0000000000000000 0.1250000000000000 O
0.3750000000000000 0.0000000000000000 0.3750000000000000 O
0.3750000000000000 0.0000000000000000 0.6250000000000000 O
0.3750000000000000 0.0000000000000000 0.8750000000000000 O
0.3750000000000000 0.2500000000000000 0.1250000000000000 O
0.3750000000000000 0.2500000000000000 0.3750000000000000 O
0.3750000000000000 0.2500000000000000 0.6250000000000000 O
0.3750000000000000 0.2500000000000000 0.8750000000000000 O
0.3750000000000000 0.4999999999999999 0.1250000000000000 O
0.3750000000000000 0.4999999999999999 0.3750000000000000 O
0.3750000000000000 0.4999999999999999 0.6250000000000000 O
0.3750000000000000 0.4999999999999999 0.8750000000000000 O
0.3750000000000000 0.7500000000000000 0.1250000000000000 O
0.3750000000000000 0.7500000000000000 0.3750000000000000 O
0.3750000000000000 0.7500000000000000 0.6250000000000000 O
0.3750000000000000 0.7500000000000000 0.8750000000000000 O
0.6250000000000000 0.0000000000000000 0.1250000000000000 O
0.6250000000000000 0.0000000000000000 0.3750000000000000 O
0.6250000000000000 0.0000000000000000 0.6250000000000000 O
0.6250000000000000 0.0000000000000000 0.8750000000000000 O
0.6250000000000000 0.2500000000000000 0.1250000000000000 O
0.6250000000000000 0.2500000000000000 0.3750000000000000 O
0.6250000000000000 0.2500000000000000 0.6250000000000000 O
0.6250000000000000 0.2500000000000000 0.8750000000000000 O
0.6250000000000000 0.4999999999999999 0.1250000000000000 O
0.6250000000000000 0.4999999999999999 0.3750000000000000 O
0.6250000000000000 0.4999999999999999 0.6250000000000000 O
0.6250000000000000 0.4999999999999999 0.8750000000000000 O
0.6250000000000000 0.7500000000000000 0.1250000000000000 O
0.6250000000000000 0.7500000000000000 0.3750000000000000 O
0.6250000000000000 0.7500000000000000 0.6250000000000000 O
0.6250000000000000 0.7500000000000000 0.8750000000000000 O
0.8750000000000000 0.0000000000000000 0.1250000000000000 O
0.8750000000000000 0.0000000000000000 0.3750000000000000 O
0.8750000000000000 0.0000000000000000 0.6250000000000000 O
0.8750000000000000 0.0000000000000000 0.8750000000000000 O
0.8750000000000000 0.2500000000000000 0.1250000000000000 O
0.8750000000000000 0.2500000000000000 0.3750000000000000 O
0.8750000000000000 0.2500000000000000 0.6250000000000000 O
0.8750000000000000 0.2500000000000000 0.8750000000000000 O
0.8750000000000000 0.4999999999999999 0.1250000000000000 O
0.8750000000000000 0.4999999999999999 0.3750000000000000 O
0.8750000000000000 0.4999999999999999 0.6250000000000000 O
0.8750000000000000 0.4999999999999999 0.8750000000000000 O
0.8750000000000000 0.7500000000000000 0.1250000000000000 O
0.8750000000000000 0.7500000000000000 0.3750000000000000 O
0.8750000000000000 0.7500000000000000 0.6250000000000000 O
0.8750000000000000 0.7500000000000000 0.8750000000000000 O
0.1250000000000000 0.1250000000000000 0.0000000000000000 O
0.1250000000000000 0.1250000000000000 0.2500000000000000 O
0.1250000000000000 0.1250000000000000 0.4999999999999999 O
0.1250000000000000 0.1250000000000000 0.7500000000000000 O
0.1250000000000000 0.3750000000000000 0.0000000000000000 O
0.1250000000000000 0.3750000000000000 0.2500000000000000 O
0.1250000000000000 0.3750000000000000 0.4999999999999999 O
0.1250000000000000 0.3750000000000000 0.7500000000000000 O
0.1250000000000000 0.6250000000000000 0.0000000000000000 O
0.1250000000000000 0.6250000000000000 0.2500000000000000 O
0.1250000000000000 0.6250000000000000 0.4999999999999999 O
0.1250000000000000 0.6250000000000000 0.7500000000000000 O
0.1250000000000000 0.8750000000000000 0.0000000000000000 O
0.1250000000000000 0.8750000000000000 0.2500000000000000 O
0.1250000000000000 0.8750000000000000 0.4999999999999999 O
0.1250000000000000 0.8750000000000000 0.7500000000000000 O
0.3750000000000000 0.1250000000000000 0.0000000000000000 O
0.3750000000000000 0.1250000000000000 0.2500000000000000 O
0.3750000000000000 0.1250000000000000 0.4999999999999999 O
0.3750000000000000 0.1250000000000000 0.7500000000000000 O
0.3750000000000000 0.3750000000000000 0.0000000000000000 O
0.3750000000000000 0.3750000000000000 0.2500000000000000 O
0.3750000000000000 0.3750000000000000 0.4999999999999999 O
0.3750000000000000 0.3750000000000000 0.7500000000000000 O
0.3750000000000000 0.6250000000000000 0.0000000000000000 O
0.3750000000000000 0.6250000000000000 0.2500000000000000 O
0.3750000000000000 0.6250000000000000 0.4999999999999999 O
0.3750000000000000 0.6250000000000000 0.7500000000000000 O
0.3750000000000000 0.8750000000000000 0.0000000000000000 O
0.3750000000000000 0.8750000000000000 0.2500000000000000 O
0.3750000000000000 0.8750000000000000 0.4999999999999999 O
0.3750000000000000 0.8750000000000000 0.7500000000000000 O
0.6250000000000000 0.1250000000000000 0.0000000000000000 O
0.6250000000000000 0.1250000000000000 0.2500000000000000 O
0.6250000000000000 0.1250000000000000 0.4999999999999999 O
0.6250000000000000 0.1250000000000000 0.7500000000000000 O
0.6250000000000000 0.3750000000000000 0.0000000000000000 O
0.6250000000000000 0.3750000000000000 0.2500000000000000 O
0.6250000000000000 0.3750000000000000 0.4999999999999999 O
0.6250000000000000 0.3750000000000000 0.7500000000000000 O
0.6250000000000000 0.6250000000000000 0.0000000000000000 O
0.6250000000000000 0.6250000000000000 0.2500000000000000 O
0.6250000000000000 0.6250000000000000 0.4999999999999999 O
0.6250000000000000 0.6250000000000000 0.7500000000000000 O
0.6250000000000000 0.8750000000000000 0.0000000000000000 O
0.6250000000000000 0.8750000000000000 0.2500000000000000 O
0.6250000000000000 0.8750000000000000 0.4999999999999999 O
0.6250000000000000 0.8750000000000000 0.7500000000000000 O
0.8750000000000000 0.1250000000000000 0.0000000000000000 O
0.8750000000000000 0.1250000000000000 0.2500000000000000 O
0.8750000000000000 0.1250000000000000 0.4999999999999999 O
0.8750000000000000 0.1250000000000000 0.7500000000000000 O
0.8750000000000000 0.3750000000000000 0.0000000000000000 O
0.8750000000000000 0.3750000000000000 0.2500000000000000 O
0.8750000000000000 0.3750000000000000 0.4999999999999999 O
0.8750000000000000 0.3750000000000000 0.7500000000000000 O
0.8750000000000000 0.6250000000000000 0.0000000000000000 O
0.8750000000000000 0.6250000000000000 0.2500000000000000 O
0.8750000000000000 0.6250000000000000 0.4999999999999999 O
0.8750000000000000 0.6250000000000000 0.7500000000000000 O
0.8750000000000000 0.8750000000000000 0.0000000000000000 O
0.8750000000000000 0.8750000000000000 0.2500000000000000 O
0.8750000000000000 0.8750000000000000 0.4999999999999999 O
0.8750000000000000 0.8750000000000000 0.7500000000000000 O
0.0000000000000000 0.1250000000000000 0.1250000000000000 O
0.0000000000000000 0.1250000000000000 0.3750000000000000 O
0.0000000000000000 0.1250000000000000 0.6250000000000000 O
0.0000000000000000 0.1250000000000000 0.8750000000000000 O
0.0000000000000000 0.3750000000000000 0.1250000000000000 O
0.0000000000000000 0.3750000000000000 0.3750000000000000 O
0.0000000000000000 0.3750000000000000 0.6250000000000000 O
0.0000000000000000 0.3750000000000000 0.8750000000000000 O
0.0000000000000000 0.6250000000000000 0.1250000000000000 O
0.0000000000000000 0.6250000000000000 0.3750000000000000 O
0.0000000000000000 0.6250000000000000 0.6250000000000000 O
0.0000000000000000 0.6250000000000000 0.8750000000000000 O
0.0000000000000000 0.8750000000000000 0.1250000000000000 O
0.0000000000000000 0.8750000000000000 0.3750000000000000 O
0.0000000000000000 0.8750000000000000 0.6250000000000000 O
0.0000000000000000 0.8750000000000000 0.8750000000000000 O
0.2500000000000000 0.1250000000000000 0.1250000000000000 O
0.2500000000000000 0.1250000000000000 0.3750000000000000 O
0.2500000000000000 0.1250000000000000 0.6250000000000000 O
0.2500000000000000 0.1250000000000000 0.8750000000000000 O
0.2500000000000000 0.3750000000000000 0.1250000000000000 O
0.2500000000000000 0.3750000000000000 0.3750000000000000 O
0.2500000000000000 0.3750000000000000 0.6250000000000000 O
0.2500000000000000 0.3750000000000000 0.8750000000000000 O
0.2500000000000000 0.6250000000000000 0.1250000000000000 O
0.2500000000000000 0.6250000000000000 0.3750000000000000 O
0.2500000000000000 0.6250000000000000 0.6250000000000000 O
0.2500000000000000 0.6250000000000000 0.8750000000000000 O
0.2500000000000000 0.8750000000000000 0.1250000000000000 O
0.2500000000000000 0.8750000000000000 0.3750000000000000 O
0.2500000000000000 0.8750000000000000 0.6250000000000000 O
0.2500000000000000 0.8750000000000000 0.8750000000000000 O
0.4999999999999999 0.1250000000000000 0.1250000000000000 O
0.4999999999999999 0.1250000000000000 0.3750000000000000 O
0.4999999999999999 0.1250000000000000 0.6250000000000000 O
0.4999999999999999 0.1250000000000000 0.8750000000000000 O
0.4999999999999999 0.3750000000000000 0.1250000000000000 O
0.4999999999999999 0.3750000000000000 0.3750000000000000 O
0.4999999999999999 0.3750000000000000 0.6250000000000000 O
0.4999999999999999 0.3750000000000000 0.8750000000000000 O
0.4999999999999999 0.6250000000000000 0.1250000000000000 O
0.4999999999999999 0.6250000000000000 0.3750000000000000 O
0.4999999999999999 0.6250000000000000 0.6250000000000000 O
0.4999999999999999 0.6250000000000000 0.8750000000000000 O
0.4999999999999999 0.8750000000000000 0.1250000000000000 O
0.4999999999999999 0.8750000000000000 0.3750000000000000 O
0.4999999999999999 0.8750000000000000 0.6250000000000000 O
0.4999999999999999 0.8750000000000000 0.8750000000000000 O
0.7500000000000000 0.1250000000000000 0.1250000000000000 O
0.7500000000000000 0.1250000000000000 0.3750000000000000 O
0.7500000000000000 0.1250000000000000 0.6250000000000000 O
0.7500000000000000 0.1250000000000000 0.8750000000000000 O
0.7500000000000000 0.3750000000000000 0.1250000000000000 O
0.7500000000000000 0.3750000000000000 0.3750000000000000 O
0.7500000000000000 0.3750000000000000 0.6250000000000000 O
0.7500000000000000 0.3750000000000000 0.8750000000000000 O
0.7500000000000000 0.6250000000000000 0.1250000000000000 O
0.7500000000000000 0.6250000000000000 0.3750000000000000 O
0.7500000000000000 0.6250000000000000 0.6250000000000000 O
0.7500000000000000 0.6250000000000000 0.8750000000000000 O
0.7500000000000000 0.8750000000000000 0.1250000000000000 O
0.7500000000000000 0.8750000000000000 0.3750000000000000 O
0.7500000000000000 0.8750000000000000 0.6250000000000000 O
0.7500000000000000 0.8750000000000000 0.8750000000000000 O

