Te125 Pb125
1.0
0.0000000000000000 16.1027568429597387 16.1027568429597387
16.1027568429597387 0.0000000000000000 16.1027568429597387
16.1027568429597387 16.1027568429597387 0.0000000000000000
Pb Te
125 125
cartesian
0.0624104722563387 16.1325055408953233 16.1137089169130192 Pb
3.2812160916932291 19.3427311059698042 16.1317834263526798 Pb
22.5878753767770561 22.5555840643326917 32.1523615823183420 Pb
25.6991034756181733 9.6365073622629485 16.1011520857459338 Pb
29.0083212856375177 29.0301326301002298 32.1574096170322221 Pb
3.2661574306571919 16.0512560745163917 19.3103560706998465 Pb
6.4601861674150705 19.3683354091758559 19.2732245399138584 Pb
9.6537250066256455 6.3982657401633913 3.2753429835793866 Pb
12.8391065991236353 9.6119167554959954 3.2443984426226939 Pb
16.0629848229777217 12.9249408420308995 3.1819265737413702 Pb
6.4796793841709333 16.0729972872316544 22.4935981520888646 Pb
9.6327077159130816 19.2622408173289799 22.5621045760811931 Pb
12.9120186943386130 22.4925341935417222 22.5809658680896916 Pb
16.0432553553689097 9.6820980476153160 6.4717885354714149 Pb
19.2617251540012902 12.8797208209832750 6.4079160904671344 Pb
9.7048728407822704 16.0651764002573501 25.7241635727871163 Pb
12.9077769884446738 19.2991721858883416 25.7038836827061807 Pb
16.0584078295025634 6.4785932643674675 9.6225692573448640 Pb
19.2824389640922718 9.6158543956492633 9.6953006682216909 Pb
22.4914117721746862 12.9282323571960234 9.6671996892769858 Pb
12.9202572518401908 16.0919166838636833 28.9272167271758747 Pb
16.1585165973077594 19.3258416042329024 28.9427197828797595 Pb
19.2777958904990250 22.5377127994287676 28.9321338617449264 Pb
22.5458668312133703 25.8099688671654945 28.9318544364483543 Pb
25.7090880632532439 12.8662684198193169 12.9220224134041679 Pb
16.1136245784839751 19.3198237435911544 3.2896147511300717 Pb
19.2633956568302622 6.4078770286725648 19.3089367787535195 Pb
6.4619666250453527 9.6103081930245882 3.1777927972050910 Pb
9.7131981520611177 12.8860814664729055 3.2677550546529202 Pb
12.9404999633661344 16.0813825411544116 3.2528761543570068 Pb
3.2717485507592543 3.2323344080110181 6.4873629632985210 Pb
6.4505057283125202 6.4519900661532343 6.5096085750792785 Pb
9.6543651567473852 9.6692482862975915 6.5103067807381825 Pb
12.8385897530870441 12.8383357298729575 6.4083443126931243 Pb
16.1655492097424833 16.0725800704293746 6.4342850342369999 Pb
22.5664989646891279 19.3569938363698633 9.7186868766011383 Pb
9.6781070476057387 6.4722730024691666 9.7221331539428579 Pb
12.9395278495683979 9.6214812374157823 9.6621888478503219 Pb
16.0763171675879342 12.8976485478216372 9.5987060712669514 Pb
19.3875357617446973 16.0972885051942640 9.6889473114924201 Pb
25.7487305346343334 19.3014672946785879 12.9468359545126575 Pb
12.9092151472423868 6.4592297670794041 12.9441884426605007 Pb
16.0894351420440955 9.6881110622980398 12.8187818057866068 Pb
19.2645789798365925 12.8970638803595978 12.8471326199995328 Pb
22.5044622771618279 16.0448962193587299 12.8821780105440897 Pb
28.9631746335095528 19.2567902873552121 16.1035708420014743 Pb
16.1645157478115244 6.4411059732459899 16.0698047920215075 Pb
19.3665557362480882 9.6224955374298400 16.0640753469606743 Pb
22.5275080638263567 12.8142905826758788 16.0982629136544517 Pb
25.7231511173286158 16.1215208690441756 16.1561004239922390 Pb
16.1380252363745207 22.5077346207307727 6.4895911660443897 Pb
3.2507776377044433 9.6053951528664285 6.4697611194319418 Pb
22.5804508371961674 12.9213157277239397 22.4987877708862563 Pb
25.6952230430084896 16.1130023711849013 22.5410200639020530 Pb
12.9300593499998691 19.3016630848216906 6.3948264465392022 Pb
19.2784781375599508 22.5189695952432523 9.7093065256257720 Pb
6.4569968190486406 9.6766098724407961 9.5951431803188925 Pb
9.6662748666589966 12.8183808174999356 9.6332804957735654 Pb
12.9015401837403889 16.0355324578547567 9.6589987224261886 Pb
16.1345264921828253 19.3024933593135160 9.6028541796317981 Pb
6.4042704186235122 6.4997653624615142 12.8923087760560655 Pb
9.6812916106203595 9.6183380391141498 12.9335677832376348 Pb
12.8413068959422993 12.8285160259296926 12.9007729030854819 Pb
16.1193918843059585 16.1253206360879133 12.9463471194907456 Pb
19.3323821360205841 19.2688568946340268 12.8391622637456102 Pb
9.6403829536658705 6.5063871437938445 16.1163761065779170 Pb
12.8436768583278820 9.7035790042756638 16.1434735303474568 Pb
16.1146723335922530 12.9235580874625260 16.1579653791948559 Pb
19.3519255688713905 16.0665017222240181 16.1553554463677678 Pb
22.5962012132754708 19.2771700739041236 16.1083805157371707 Pb
12.8685431840386446 6.4835042465858210 19.2693132689792499 Pb
16.0391037908681646 9.6575632914621163 19.3521448930125892 Pb
19.2568554432967218 12.8869247693390996 19.3018196600363865 Pb
22.5422030707175338 16.1132855022743939 19.3924920486059946 Pb
25.7840563032447889 19.2565333084917363 19.3158804011379530 Pb
16.1523128471919648 9.7078063404389177 25.7466860035977163 Pb
3.2687792259011408 12.9212367736342166 9.6940675513955128 Pb
22.5539609341160237 16.0591773524931263 25.7105705302881518 Pb
25.7248281106206136 19.3752613833298390 25.7895916331773165 Pb
12.9294103225970982 22.5156694116544500 9.7049786566009750 Pb
3.2784489908598915 9.6466707449325035 12.9185835478950821 Pb
6.4258180315487010 12.8149805107805594 12.8943373350799959 Pb
9.6689341965896922 16.1293613575221251 12.8178688589560252 Pb
12.9262427780395015 19.3697649487198689 12.9105336839302254 Pb
16.1514208130444601 22.5933947567849280 12.8910420059672983 Pb
6.4112693952755118 9.7159166302096480 16.0701140772581610 Pb
9.6951504313492762 12.8293266730126234 16.0714226995963294 Pb
12.9425800444253873 16.1104930627751664 16.0681871713771507 Pb
16.1298322503994882 19.3601947268931660 16.0497822519001119 Pb
19.3237615884936673 22.5412603324853613 16.0328065866274088 Pb
9.6243880311680030 9.7208486442429560 19.3260001066069158 Pb
12.9025925082466131 12.8882694726709275 19.3899985165007891 Pb
16.0908591993887953 16.1191282516039536 19.3903188305345253 Pb
19.2743621081386962 19.2899834149704645 19.2859754257796077 Pb
22.5352760231586302 22.5434572532418045 19.3927787857723573 Pb
12.9390055168044764 9.6934275901392226 22.5696316749479209 Pb
16.0585999018435892 12.8306637588605028 22.5267243499488075 Pb
19.2780566989481130 16.0509260017770288 22.5309807405460489 Pb
22.5179880131943939 19.3495431982201183 22.6033775396020928 Pb
25.7866491178659700 22.5011904833245424 22.5947006266550048 Pb
16.0753959741367787 28.9354613048279141 12.9234490510648445 Pb
3.2596638972946339 16.0461064653130734 12.8695190717661045 Pb
6.5100420724952652 19.3112876376332459 12.8805102311704598 Pb
9.7001849513548812 22.4890155444579918 12.8620187042280012 Pb
12.9436783619289173 25.7430209180359384 12.8564459968582341 Pb
19.3412729577538869 28.9205774782484468 16.0819755920192620 Pb
6.3901984313868763 16.0553519071858908 16.1106005484361532 Pb
9.6694987868471518 19.3080156514061656 16.1706140355268140 Pb
12.8234883872430174 22.5746881232556156 16.1251600706105442 Pb
16.0956910664467330 25.8195626201918706 16.1452817525757055 Pb
6.4848205267948300 12.9082877489657442 19.2752616734523485 Pb
9.6380286478078840 16.0377659531355121 19.3341720035074864 Pb
12.9327991825036435 19.3447793491071423 19.3666587242261485 Pb
16.0955572664547972 22.4898153949131334 19.3672102860006277 Pb
19.2576011663008728 25.7703764272694151 19.3466961843212566 Pb
25.7873088172549991 28.9206802633514641 22.5594642318182430 Pb
12.9137510937950317 16.0459046552673108 22.5697960920436067 Pb
16.1338906728480893 19.3833769039792898 22.5618161061584814 Pb
19.3081886830948655 22.5033030025380434 22.5988737953263019 Pb
22.5533811329083491 25.7066525484496218 22.5822432645597431 Pb
28.9176476511786547 28.9768958769333409 25.7469848688369751 Pb
16.1200183652288445 16.1690681188439385 25.7500982082725365 Pb
19.3622112206728403 19.2827775909329731 25.8061700755653121 Pb
22.4931535342492985 22.5129362750274709 25.7273617097359271 Pb
25.7485037625957105 25.7170834194061158 25.8134728116912413 Pb
3.2134981354060290 3.1879626110281456 3.2820999248875484 Te
6.4896758508469068 6.4757788387057875 3.2571330663699887 Te
9.7311545187044803 9.6619998779544645 3.2288924143506916 Te
12.8166863469259038 12.8940420995079670 3.1989379874463584 Te
16.0969281339207875 16.1720094953333344 3.2289237213174968 Te
6.3957240366954338 3.2484678958612259 6.4865058323118960 Te
9.7213550894901175 6.4326392856430639 6.4055476738094086 Te
12.8794192365288644 9.7314490813917089 6.4456741983819743 Te
16.1303026531501033 12.8834633248436674 6.3767626551732501 Te
19.3398145663180898 16.1559999611948335 6.4834431506552992 Te
9.6345729069165174 3.2165075146528985 9.7260765856540754 Te
12.8517620145515536 6.5009462590672760 9.6418564129049447 Te
16.0351189016733571 9.6746240693668444 9.6741796374207603 Te
19.3208095727027853 12.8195861815868195 9.6928403363193674 Te
22.5934137387637755 16.1516259711035737 9.6541578615221280 Te
12.9198857223745058 3.1686494596503985 12.9102481339844477 Te
16.0874943843938425 6.3808463862928901 12.8500149550208871 Te
19.3067642581835166 9.7097211457718302 12.9303288291238339 Te
22.5719088346182915 12.8535338134695589 12.8248367094799818 Te
25.7652777897817913 16.0884740188296433 12.8136835835483645 Te
16.0560532888919560 3.2402144278459657 16.1510491004987138 Te
19.2956138667486670 6.5026773991942193 16.0842748445762709 Te
22.4917376378134435 9.6422888302174155 16.0602328587828609 Te
25.7286445715594922 12.8907135154471781 16.0431885670010566 Te
29.0491705186708451 16.1275334150892071 16.1155407529159760 Te
3.2275784840139359 6.3897992327543056 6.3940010378293177 Te
6.4598654747190194 9.7256436184637955 6.4198118483779654 Te
9.6823942915080750 12.8774541266923723 6.3744148867832440 Te
12.8660185469742885 16.1405738183119389 6.3844647662035676 Te
16.0736704747327259 19.3288473603820847 6.5045322335842117 Te
6.4766254215671317 6.4562195082495411 9.6032621360646075 Te
9.7182578128287815 9.6251653062800351 9.6425599218650291 Te
12.8396770033529677 12.9318040027450039 9.6867800910491866 Te
16.0720880097641938 16.0413160969839588 9.6752356154254677 Te
19.3691839718644836 19.3756395688604712 9.6691935790958006 Te
9.6135915110171108 6.4010067492927849 12.8508638289085333 Te
12.8418004716764305 9.6108567152808888 12.8559936282593164 Te
16.0828737258138581 12.9449110613413296 12.8582749287227962 Te
19.2874602889250113 16.1625516626123833 12.8759200956154203 Te
22.5722614450420735 19.3649716171669510 12.9307595133638245 Te
12.9471931133367342 6.4384801639625273 16.1286359637125969 Te
16.1129710769824968 9.7308924016127349 16.1014423799775130 Te
19.3725225513840371 12.9250507958238465 16.1280990446042871 Te
22.6120714942734971 16.0883232052337668 16.0965274872357931 Te
25.8008784239943090 19.2792915652646073 16.1431630070673648 Te
16.0943975227008842 6.3883132118291064 19.3685120584856101 Te
19.3110993673314724 9.6213192018096265 19.2674151024518814 Te
22.5905329773328276 12.8354620060479032 19.3001426732620871 Te
25.7003835493723471 16.0901315694324190 19.2979883655975470 Te
28.9157459506513703 19.3229786238122969 19.3337478454568306 Te
3.2853517248216626 9.6406572912095907 9.6777800975460391 Te
6.4544114041577370 12.8948390971266811 9.5941021186891149 Te
9.7287384922464231 16.0856040489296284 9.6513844052531272 Te
12.8715424208675948 19.3447982151115454 9.5958933345132635 Te
16.1517347846811639 22.5231762980183383 9.6161199091181864 Te
6.3909169491108866 9.6156512133618346 12.8659229510671445 Te
9.6822599874613839 12.8173003679311819 12.8984142620588482 Te
12.8569992219021536 16.0421830401522989 12.9066075080962310 Te
16.1478553160787826 19.3598808769322730 12.9213023779445528 Te
19.3304851658848342 22.5062477653500252 12.8236064751064447 Te
9.5989071326512772 9.6926581447618627 16.1040086138087162 Te
12.8190454571923329 12.8981221048878467 16.0771156046260657 Te
16.1599652979823709 16.1141444443540749 16.0640591013149532 Te
19.3255043848498005 19.3773611850537293 16.1471804051585579 Te
22.5551806335395995 22.5995562918996740 16.0618947572375141 Te
12.8395332562886715 9.6283003484804865 19.2789617497030648 Te
16.0995052061459276 12.8307566250841134 19.2759537738988449 Te
19.2584065681915568 16.1253622090934101 19.3366038541129512 Te
22.5821725164165663 19.2825535672507051 19.3653935757778299 Te
25.7962775647994818 22.5295688821005626 19.3839736442961836 Te
16.0386675176753570 9.6348806878145830 22.5525625954408788 Te
19.2610381349816784 12.8714639564584932 22.5137421872124648 Te
22.5834004101377488 16.1356309085175056 22.4963641216546364 Te
25.8004764141920617 19.3511591759983439 22.4907219665276799 Te
28.9287637065720133 22.5508985002852960 22.5849955711051962 Te
3.2564191805022196 12.9420527643643393 12.8878447960325389 Te
6.4879350531226248 16.0937427664077859 12.8309660305014610 Te
9.6321932176197631 19.3480410399252349 12.8237217734785744 Te
12.8741887842667371 22.6105305200483997 12.9019720737728196 Te
16.0527181191686950 25.7887226818936135 12.9246915397565321 Te
6.4703132041963904 12.8394541283921164 16.0556498261344274 Te
9.5975591840227779 16.0762098721086453 16.1120895458961684 Te
12.8832321804400625 19.2982479851143331 16.0374044832047176 Te
16.1703493080054130 22.5512779637773626 16.0861367872043459 Te
19.3406651385394923 25.8275854631052226 16.1274087763464067 Te
9.6809232297029162 12.9189204163701277 19.3797060297439465 Te
12.8452352705653219 16.1609771662345452 19.3113249737345711 Te
16.0795261815446118 19.2785636380759513 19.3718701257920642 Te
19.2940716488570416 22.5119643533359621 19.2682816915028070 Te
22.5007939928469369 25.7241419465460481 19.2855754319900043 Te
12.9133296156912127 12.9442591207984989 22.5348800037876558 Te
16.0833863248459252 16.0720410568659418 22.6037037403653471 Te
19.2582423950669295 19.3011547489149891 22.5571133953821459 Te
22.5303682231717097 22.6098146379216693 22.5246785050811553 Te
25.7344598489719871 25.8097646967641907 22.4997464396670281 Te
16.1341692239896979 12.9362135959469811 25.7959765173431030 Te
19.3188418362767003 16.1469483599215700 25.8185141955930035 Te
22.4952589575461133 19.3641800766486440 25.7938637945510436 Te
25.8000422074271043 22.4859260104957990 25.7809673647703761 Te
28.9325485278226076 25.8103109415543841 25.7711921970696309 Te
3.2471359963746207 16.0537326372899614 16.1450638733932728 Te
6.4577067822622549 19.3487079983125625 16.1658373987557837 Te
9.6651937932858143 22.4751468638065610 16.1156422310374232 Te
12.8752294144558324 25.8265874908511748 16.0713655671230988 Te
16.0687029998678526 28.9975767807992142 16.1626000638121852 Te
6.4467542174068040 16.1638520141766762 19.2896119087090412 Te
9.6354123172750512 19.3004839955650631 19.2625593539420485 Te
12.8383224775332181 22.5903030170812897 19.2947199315363633 Te
16.0483122518488912 25.7208439848119816 19.3171676779224839 Te
19.2990343439311509 29.0377427271451047 19.2842568647089792 Te
9.6782146013866033 16.0725634396714163 22.4829160949873454 Te
12.9215948085337935 19.2655019249171247 22.5412302114965541 Te
16.1131765519708452 22.6110768923249275 22.5603902367321112 Te
19.2872865421400697 25.7804892514233259 22.6016862825870675 Te
22.5394991142015400 28.9809815434258624 22.4741090261966434 Te
12.9189343080732009 16.0511668894028965 25.7345869740399920 Te
16.1375275481424509 19.3130624394874104 25.7045275435559795 Te
19.2872704356650004 22.5137600955021639 25.8163272249258000 Te
22.4904221485519145 25.7924296217901130 25.7289229949323115 Te
25.8294632627513110 29.0003374112547938 25.7851908170683224 Te
16.1233545580512612 16.1143810629380830 28.9190789989312620 Te
19.3037372730093324 19.3289896048473864 28.9179944135616829 Te
22.5154122293599208 22.5263078222697146 29.0464658459167353 Te
25.7901597683707386 25.7426761937169033 28.9236059915601338 Te
28.9455718761250651 29.0379704019189617 28.9617559365277870 Te
