Te125 Pb125
1.0
0.0000000000000000 16.1027568429597387 16.1027568429597387
16.1027568429597387 0.0000000000000000 16.1027568429597387
16.1027568429597387 16.1027568429597387 0.0000000000000000
Pb Te
125 125
cartesian
16.1159667075666277 16.1037285433952384 32.1785961214804104 Pb
19.3304375488138440 19.3382188839746441 32.1804768251318762 Pb
6.4260316934763688 6.4408331772496537 0.0259382146457240 Pb
25.7374571093503981 9.6637287176892883 16.1157640151276702 Pb
28.9784211825703224 12.9099193389828937 16.0933146364282216 Pb
19.3135595120371484 16.1208456962070130 3.2424090044653404 Pb
6.4128800458900841 3.2109382419242021 3.2172245845887217 Pb
9.6888008413939204 22.5347285980091492 19.3143818511208103 Pb
12.9092728622285993 25.7721915598835913 19.3336435201855075 Pb
16.0786542926889524 12.8667453029411742 3.2294984446452655 Pb
22.5187787758643800 16.1104379798077204 6.4265441179695513 Pb
9.6474664751794261 3.2234618560785697 6.4673751600004126 Pb
12.8641703708767690 6.4592937802086681 6.4254879686701152 Pb
16.1040288716926980 9.6756228700845277 6.4676217033513597 Pb
19.3062895202256577 12.8692255327675937 6.4621238042739577 Pb
25.7364317374698430 16.1110482380250737 9.6686123027274640 Pb
12.8844258943202821 19.3224388486944818 25.7345058665010029 Pb
16.0894582749435529 6.4677682682306310 9.6581759535775618 Pb
19.3040661551697745 9.6546353151689122 9.6835739562454801 Pb
22.5176145999820143 12.8781870175451303 9.6756202441497976 Pb
28.9994963399740300 16.0995166766126410 12.9082489669859957 Pb
16.0792201573497380 3.2259502197571956 12.9000065090734353 Pb
19.3092270626761753 6.4560556946643084 12.9040716653697647 Pb
22.5577976083152230 25.7806182273351503 28.9639134339584743 Pb
25.7601755935751306 12.8969626876610466 12.9079792288960373 Pb
0.0190909263393944 3.2264983970583296 3.2429158355859067 Pb
19.3068780679679222 6.4370815880205692 19.2985315947280931 Pb
22.5227488887882679 9.6783879081161501 19.3365111873425484 Pb
25.7745482949456814 12.9020573076688088 19.3032298917413634 Pb
12.8924592038963706 16.0780373503442213 3.2341089390080029 Pb
19.3213306050170175 19.2936101095711550 6.4448593062499455 Pb
6.4308403655926192 6.4381473815668953 6.4691375298975871 Pb
9.6530995572373239 9.6617672005246185 6.4123484869088516 Pb
12.8668980444838983 12.8920227328395551 6.4649628299424791 Pb
16.0800890874454439 16.1224044570895906 6.4414823671993471 Pb
22.5654171532838532 19.3027881092724236 9.6654219224848621 Pb
9.6489477547983498 6.4147547356180503 9.6683122930909313 Pb
12.8967101468661181 9.6677051457141818 9.6872079585456490 Pb
16.0944595289464445 12.9108231751214451 9.6581638645607981 Pb
19.3414871543882114 16.0844939642403553 9.6770161791459142 Pb
25.7453914478606762 19.3001855347435942 12.8803080013909419 Pb
12.8723884846980035 6.4539175475190405 12.8569189690754939 Pb
16.0996402131875556 9.6382497238606870 12.9007128114542766 Pb
19.3281843543187009 12.8961348096342636 12.8560865760229159 Pb
22.5339909512490522 16.1200238573657231 12.9046656697641957 Pb
12.8910105796040391 3.2491894790257119 16.1042828680454448 Pb
16.1155381615518145 6.4566110059571837 16.1250308523586625 Pb
19.3236099541950566 9.6812200311294561 16.0800173725078146 Pb
22.5180225063834456 12.8709455608896519 16.0924777394981007 Pb
25.7567063061862775 16.0854226271835081 16.1259982595820226 Pb
32.1843861232943880 22.5387757969711586 22.5231767068863107 Pb
19.2964696995113414 9.6597658258847723 22.5571309278714729 Pb
22.5489584418160511 12.8694698981817268 22.5171798742072049 Pb
9.6715559694624886 16.0759516532567304 6.4319684665224317 Pb
28.9836355185631653 19.3273901232056673 22.5141682076208305 Pb
3.2344230910312137 6.4628576551995485 9.6463472818498843 Pb
6.4621813260733383 9.6414325137824335 9.6548144926521431 Pb
9.6397519406552377 12.8945504113923128 9.6452865252310502 Pb
12.8751506176101511 16.1317144703347424 9.6582358002102477 Pb
16.1242744167276548 19.3379430333805331 9.6765811285593806 Pb
6.4504807163277285 6.4611042198466029 12.9025031145870699 Pb
9.6884171731197508 9.6559012113678708 12.8944791222475494 Pb
12.8726773198681048 12.8886068471685853 12.8544883912222776 Pb
16.0872345409770006 16.1128996225541670 12.9057889890179744 Pb
19.3414442011791543 19.3211040301963166 12.9060010089233543 Pb
25.7613846740213610 22.5170082166577110 16.0897243474082074 Pb
12.9017432937842056 9.6449205553426900 16.0873211083690961 Pb
16.1294770516170374 12.8686131699272046 16.1038880853320379 Pb
19.3375312936545356 16.1197633396251092 16.0825458804228809 Pb
22.5383214528548805 19.3345489230134184 16.1300144208412704 Pb
12.8982447890723968 6.4605099946248314 19.3396207448444670 Pb
16.1172617446086406 9.6651883598800854 19.3493296810736481 Pb
19.3367060703096527 12.8867311274986260 19.3497660240924283 Pb
22.5408243901756116 16.1191381701893839 19.3482569538056239 Pb
25.7358167500764594 19.3199324949988522 19.3317329572925303 Pb
32.1835851807666202 25.7482055934398879 25.7518998687861362 Pb
19.3166916064018324 12.8702045931663154 25.7377238847030014 Pb
22.5289727160247253 16.0880780130625212 25.7428955303210216 Pb
9.6630691511668907 19.3151763591335026 9.6904962732184998 Pb
12.9036264427357938 22.5239079054979463 9.6550911191836395 Pb
19.2965694920497519 25.7771460756336808 12.8774245307071453 Pb
6.4648110795597624 12.9005869653849299 12.8820176186365742 Pb
9.6742626859362577 16.0830267252009662 12.8634505774189112 Pb
12.8898684131208068 19.3465128398996917 12.8648036183490060 Pb
16.0971293141456790 22.5143922774413809 12.8823002947276777 Pb
6.4437697974249781 9.6532388503644313 16.0740850752076305 Pb
9.6476898294404236 12.8862174265873968 16.0765098769290589 Pb
12.9096472874536570 16.0906409300464475 16.1031461357004062 Pb
16.0999386775451860 19.3376267556473067 16.0765454477531122 Pb
19.3198301895715367 22.5294688325117427 16.0766645117932718 Pb
25.7490974771749777 25.7485540824084431 19.3029598116380470 Pb
12.8754472018737047 12.9110615298000226 19.3279615778372573 Pb
16.1206844264575722 16.1191627775230053 19.3408993189936496 Pb
19.3281319675586971 19.2978984752161864 19.3081070051079529 Pb
22.5402041554317805 22.5606870529318719 19.3478739199627512 Pb
12.9008151822559771 9.6411319708792877 22.5323478143536313 Pb
16.1232864520210413 12.9036857616408422 22.5397204485369649 Pb
19.3488142529659370 16.1023436630329648 22.5596479028450148 Pb
22.5338938864356990 19.2967184270631407 22.5341813411626930 Pb
25.7735032224040594 22.5158801475100638 22.5497317099992145 Pb
16.0989578870017738 12.8972639768289969 28.9592950339252013 Pb
19.2937069050827290 16.1018984417875899 28.9801637964347378 Pb
6.4263649381233678 19.2987019487516704 12.8734117772006122 Pb
25.7569580812405334 22.5701780393806928 28.9972827665680626 Pb
28.9788079181372851 25.7770601591230317 28.9584647542852203 Pb
3.2323882123216205 12.8620764703853609 16.0839230348160136 Pb
6.4674929438263682 16.0909967662808278 16.0946786259613113 Pb
9.6529094597920828 19.3397943130003931 16.1262459814207730 Pb
12.8580128100890434 22.5329364227191071 16.1167353846209664 Pb
16.1265642949780315 25.7824703696532183 16.1054143877884250 Pb
22.5589504521078368 28.9805815780177198 19.3488635379330773 Pb
9.6361599022407063 16.1045719601899009 19.3390165194029393 Pb
12.8979749463709297 19.2978077272825459 19.3243324453051883 Pb
16.0973912512915653 22.5570052118358504 19.3497355230582180 Pb
19.2983843143052809 25.7748493509745558 19.3363404448502507 Pb
25.7845578001573372 28.9637901304607439 22.5506303172576850 Pb
12.8801599370536142 16.0748187988446958 22.5545965009369667 Pb
16.1247066335387181 19.3424231821363826 22.5365915272348261 Pb
19.3021296187932805 22.5246814033447222 22.5347127367841580 Pb
22.5603726254940860 25.7890940134545339 22.5481099506373965 Pb
28.9960620145788468 28.9584917939759769 25.7556869522646998 Pb
16.1287563578758935 16.0885900209482173 25.7595812097966004 Pb
19.3219533913546222 19.3340003269495071 25.7924081473553244 Pb
22.5408895448336040 22.5245305116776429 25.7871610257133455 Pb
25.7393112330845142 25.7582033094804430 25.7491968273638605 Pb
3.2225809926521261 3.2146839881660654 3.1912008239102505 Te
6.4351026788875636 6.4692708629683517 3.2121516072720273 Te
9.6565083589479421 9.6419895443665116 3.1984872276804657 Te
12.8637588644923611 12.8748630619592355 3.1980611137217547 Te
16.0773381434876264 16.1186345951192322 3.2218880448833995 Te
6.4543469834420950 3.2474564448174883 6.4419434597005747 Te
9.6748995507475044 6.4206286101598051 6.4585775278866224 Te
12.8864002388115573 9.6913374928653795 6.4422431240278897 Te
16.1297151873733959 12.8692810740849275 6.4386112428926783 Te
19.3118670883071211 16.0770712130769127 6.4306457243970216 Te
9.6495126466136814 3.1941723437266321 9.6541220398860315 Te
12.8683898037924145 6.4662733505433998 9.6529611506017332 Te
16.0769767721717471 9.6644252447752947 9.6767441269425607 Te
19.3212489966373369 12.8809530860130597 9.6915571350094414 Te
22.5338191882740588 16.0997302363617329 9.6897615813580842 Te
12.8953704484380580 3.2026295169547954 12.8620686749293238 Te
16.0900617203164842 6.4374801908626438 12.9091444984633856 Te
19.3444621408919843 9.6410034265224027 12.8873104444790698 Te
22.5539253661906400 12.9092767632498955 12.8740921970079523 Te
25.7758745319408646 16.0757776585392556 12.8885859028879768 Te
16.1181053250106423 3.1947758794163867 16.1025371693530914 Te
19.3154629360625236 6.4377538537934020 16.1315185646143284 Te
22.5568861786783792 9.6884912175111726 16.0995823879954933 Te
25.7485380781394113 12.8693727602852359 16.1247425980823778 Te
28.9636853786261810 16.1008567207368181 16.0816930964972222 Te
3.2283960738016155 6.4336194974039547 6.4690752544565573 Te
6.4479052371052177 9.6623986666695050 6.4703118389142826 Te
9.6347419311413596 12.8954449660070694 6.4404313821536228 Te
12.9119697299768710 16.1031543210847978 6.4448351759546831 Te
16.0969846547884501 19.3486876535235197 6.4261840988776138 Te
6.4665914955824375 6.4270729976815888 9.6543404469925651 Te
9.6662817668296270 9.6379955625861697 9.6437975079108078 Te
12.9019862716502587 12.9043071277658008 9.6571555531259072 Te
16.1280949936304339 16.0952918067139841 9.6758756160486215 Te
19.3488260672274563 19.3326611827610968 9.6489513119388022 Te
9.6562340124047434 6.4680225861780558 12.8701247327523021 Te
12.9113759414014737 9.6552568858782877 12.8793490026596871 Te
16.1070050036275205 12.8799946683163018 12.9118207654780175 Te
19.2962111965526901 16.1127807269620682 12.8902846777723585 Te
22.5257772822116245 19.3069291701514310 12.8996627795523544 Te
12.9063878600882393 6.4345292695794161 16.1192493183506720 Te
16.0830579383075616 9.6839928113652185 16.0991602629042596 Te
19.3270863382900231 12.8529583254430939 16.0972495715731476 Te
22.5187184043657354 16.0969107542445080 16.0874681370878108 Te
25.7614477860002680 19.3284563438876411 16.0733507823589825 Te
16.1085060874964654 6.4142995991331704 19.3111205957926231 Te
19.2975259171679205 9.6553069546095642 19.3372719849808554 Te
22.5183150056262846 12.8944928815729671 19.3134850584478137 Te
25.7453521331147392 16.1224410015173802 19.3355268632370709 Te
28.9955835248785725 19.3100196055056088 19.2985978311517385 Te
3.1942632212816191 9.6620386968056149 9.6472046974581911 Te
6.4279834007291203 12.8734420549933795 9.6871704827101688 Te
9.6863239842768802 16.0945813609226747 9.6766393848258208 Te
12.8730730742381017 19.3439105380425005 9.6418514945581997 Te
16.0769445343865698 22.5298329521479062 9.6555731162845433 Te
6.4355772608248252 9.6903541275418430 12.8754395404605884 Te
9.6387436713533674 12.8937985877994130 12.8977203612682789 Te
12.8659139270309169 16.0949816660293905 12.9061665283736584 Te
16.1188690795281744 19.3230449928300274 12.9075101488108182 Te
19.3466736617277348 22.5411419588528190 12.9008245579271499 Te
9.6651391900418275 9.6709468380883603 16.0744460797445399 Te
12.8791403303877452 12.8709955103564475 16.1304144205696076 Te
16.0987737590443771 16.1006265163761384 16.1324148393716733 Te
19.3218943148831670 19.3336842280775159 16.1308698146501541 Te
22.5142714717909840 22.5474031081544730 16.0992945816540853 Te
12.8910147087661695 9.6738475562082744 19.3492642735770808 Te
16.0866681136715819 12.8780362069736114 19.2983328236810614 Te
19.3248067724705734 16.0982393823577539 19.2936881699433087 Te
22.5364643916234186 19.3388224756371301 19.2987192140805099 Te
25.7551748070668332 22.5153430640109491 19.3245337704973394 Te
16.1268413464635536 9.6562951233592091 22.5609246907038639 Te
19.3144355962847634 12.8779394315938482 22.5721982035642590 Te
22.5394628539562376 16.1182131360224403 22.5185263647221134 Te
25.7461621266687430 19.3052204942076173 22.5283736195840198 Te
28.9664260100108812 22.5506136042365171 22.5664602099936076 Te
3.2291685914387336 12.9080798908762535 12.8947057959938718 Te
6.4163017221881491 16.1194931008728339 12.8800129127957828 Te
9.6664368513451606 19.2938905897406876 12.8856302184172478 Te
12.8872223918292548 22.5144474151964218 12.8853287886815977 Te
16.1075847487945794 25.7412916869023434 12.9007038812596413 Te
6.4219445631832741 12.8998010536138281 16.1177020749739413 Te
9.6762310063564367 16.1226134239807095 16.1198808074429252 Te
12.9002894697007875 19.3050284964784922 16.0873030042897156 Te
16.1312200301132407 22.5352740423742617 16.1067737470257732 Te
19.3496528592623385 25.7626126746209394 16.1169950221695366 Te
9.6781969213156085 12.9038834875647641 19.3108022530578651 Te
12.8551727753330223 16.0968259592490206 19.3117298782819375 Te
16.0835490270056312 19.3285117689152770 19.3008586503747459 Te
19.3061362406234061 22.5563017163435262 19.3445288774512676 Te
22.5687503637920983 25.7739862189152902 19.3370473196141042 Te
12.9016585135579298 12.8601184530164439 22.5496684315010114 Te
16.1121258282471018 16.1214163131566579 22.5654013137474010 Te
19.3506281773993578 19.3210249995987695 22.5316773632164917 Te
22.5541116666408357 22.5595820845064949 22.5204566406057509 Te
25.7778074136240818 25.7375798785256151 22.5430668633726192 Te
16.1106643426305105 12.9057244925710624 25.7475489431694804 Te
19.3059321294537760 16.0796604845741058 25.7563716701455050 Te
22.5337594389195104 19.3513279348732645 25.7608217632799530 Te
25.7471014945012762 22.5439375018010715 25.7889135347690157 Te
29.0067905326062494 25.7842012550586475 25.7700565482063411 Te
3.2038358190597838 16.1263386598172325 16.0947263811089272 Te
6.4195468208392255 19.3123838392826066 16.1205332475756364 Te
9.6697608535400033 22.5583355169212041 16.1277514002692790 Te
12.9114844227544943 25.7647368764586702 16.1092865406930201 Te
16.0843150381295530 28.9780272836303752 16.1253799537587597 Te
6.4152527132055752 16.1147253319142933 19.3327173311951377 Te
9.6426873608615011 19.3043683601233660 19.3367820608616441 Te
12.8934719956141706 22.5554173084649392 19.2980201824656561 Te
16.1061257587595534 25.7368818478062167 19.3347449509626621 Te
19.2938677594418273 28.9811954199205566 19.3189412602704778 Te
9.6513493295828532 16.1307230906196608 22.5472801911177427 Te
12.8981970045883259 19.3141062499452261 22.5675153376626554 Te
16.0977806442529570 22.5680099448036557 22.5267716506839690 Te
19.3512022576080511 25.7751987881690638 22.5415048582997031 Te
22.5217827323386572 28.9985104113012753 22.5589943725331707 Te
12.8540725679311265 16.0942960936283903 25.7583318619474255 Te
16.1164342652701755 19.2967970552173860 25.7675869066635599 Te
19.2940252423515375 22.5387094908694046 25.7684089851649887 Te
22.5289564767611949 25.7844568989777123 25.7810259235613870 Te
25.7935161242629434 28.9796208515583409 25.7693462806350446 Te
16.1209242586722610 16.1077728376237879 28.9616216917176885 Te
19.2946846347860017 19.3319287702797169 28.9874875540205394 Te
22.5176081107378181 22.5299363451551748 28.9808387410287125 Te
25.7654072683276922 25.7344776667785595 28.9832285415196864 Te
29.0021776907502797 29.0088170743242628 28.9908429198937263 Te
