Sr64 Ti64 O192
1.0
15.6329136064995993 0.0000000000000000 0.0000000000000000
0.0000000000000000 15.6329136064995993 0.0000000000000000
0.0000000000000000 0.0000000000000000 15.6329136064995993
Sr Ti O
64 64 192
cartesian
15.6148388326662548 0.0193665981759058 0.0299706093692875 Sr
0.0192755420324682 15.6326828921246417 3.9432769429673251 Sr
0.0315293166356863 15.6242278503156555 7.8394885168638488 Sr
0.0249819113687767 15.6118735669725126 11.7477767799847062 Sr
0.0236759892312834 3.9319737289490320 15.6111051915138646 Sr
15.6141444095186852 3.9155402015184091 3.8736704093943182 Sr
15.6313623844847154 3.8774821220321973 7.7909174218659842 Sr
0.0159003684805420 3.8746269005684852 11.7099164063812964 Sr
0.0051805250510189 7.8560912828677223 15.6314068929860124 Sr
15.6113676391987042 7.8067545720599432 3.9405028187847391 Sr
15.6161820628860841 7.8441990217822966 7.7929956703017886 Sr
15.6185537915935324 7.7898853133663408 11.6984601854993606 Sr
0.0298244520770008 11.7359396722564480 0.0241627610644946 Sr
15.6225143686613386 11.6902805938734371 3.8906733854120010 Sr
0.0239155514655720 11.7506216496481350 7.8353074592227872 Sr
0.0283323139385836 11.7258437734306646 11.6964728369168931 Sr
3.9333082350783459 15.6189684490791922 15.6050472371905649 Sr
3.9348183624118556 0.0283188145195067 3.9177687752841388 Sr
3.9362725881485638 0.0080943249836493 7.8438064925585440 Sr
3.9198418429197242 0.0382685844993054 11.7238830691560150 Sr
3.9176624852899633 3.9410684207213502 15.6121162217807150 Sr
3.8929706433406990 3.9333847225203087 3.8811293180398754 Sr
3.9259113179399079 3.9378168003036671 7.7961629338744736 Sr
3.8869665261925168 3.9207595354588456 11.7561638220287872 Sr
3.9358117636422154 7.8257615384755210 0.0274331923443272 Sr
3.9158015393483536 7.8505153323263244 3.9277902057892664 Sr
3.9297121265932597 7.8351552951026431 7.8445426709400232 Sr
3.8822613149957941 7.7903699198026484 11.7090268229655941 Sr
3.9310214626510604 11.7572403731342678 15.6283707672278673 Sr
3.9057404667302080 11.6981774488158923 3.9380805212931347 Sr
3.8987706370413311 11.6948739380959541 7.7915201021422273 Sr
3.8808445729261507 11.7016800383915989 11.7067718511718759 Sr
7.8255342097275156 15.6088364521210270 0.0306250114884652 Sr
7.7914009377465634 15.6124789466625273 3.8846778542591371 Sr
7.8178676860637069 15.6085945655059479 7.7847299431020547 Sr
7.8043377924574502 0.0194545455866485 11.6919033465772806 Sr
7.8327741706678182 3.8854723939805420 0.0285640969861684 Sr
7.8377900826917006 3.9143494047356628 3.8749504132666517 Sr
7.8223466995386639 3.8687297479592679 7.8187295725537238 Sr
7.7875008064912201 3.9115297604226980 11.6972871888551850 Sr
7.7944795003222076 7.8463489102296178 15.6179650247496173 Sr
7.7843432170330047 7.8395803837772693 3.9023959404046158 Sr
7.8538084380707076 7.8025313118567423 7.8131498309687979 Sr
7.8473983924648936 7.8101772717662081 11.7001253689389522 Sr
7.7950204452443934 11.7110493433154534 0.0308957251897612 Sr
7.8358509764279312 11.7018403820198369 3.9347233089745495 Sr
7.8530631976286767 11.7346984290405665 7.8290943359354941 Sr
7.8461285138463381 11.6985397181763773 11.7186849452483930 Sr
11.7114545220048001 15.6003411723900971 0.0190784057766469 Sr
11.7139427165839969 0.0373891467864873 3.8989197686477839 Sr
11.6900358215471609 0.0186013261164287 7.8237650794987887 Sr
11.7328296624365969 15.6248271336621887 11.6863671051296407 Sr
11.6901048060553450 3.8886853662371705 15.6281949429887792 Sr
11.7191092623652207 3.9032017306802724 3.8689391989816104 Sr
11.7329580472518451 3.9138812987546845 7.7777320717072431 Sr
11.6914430153434452 3.9285661954175319 11.7337035738412361 Sr
11.7451498271608710 7.8320603970902285 15.6022912765107282 Sr
11.7208308575454048 7.7774757171822282 3.9163289531899417 Sr
11.6860289838656506 7.8081586861739192 7.8225262208738169 Sr
11.7196183215549592 7.8297011618814203 11.7620872590677656 Sr
11.7597044051877653 11.7425607503914939 15.6255569440831081 Sr
11.7166100968575968 11.6860365840469029 3.9018192879091589 Sr
11.6924503477193351 11.7436336852496606 7.8306648670043382 Sr
11.7398727047638527 11.7614765013569240 11.7207177938455711 Sr
1.9846542868982937 1.9780881934110566 1.9444938670993612 Ti
1.9385060871316515 1.9783607962855330 5.8346209611567188 Ti
1.9406088360378106 1.9316256800602800 9.8007682151368360 Ti
1.9586398184857006 1.9349459095550994 13.7136145661054059 Ti
1.9768910681665468 5.8456673938396211 1.9257742690596009 Ti
1.9210284531211728 5.8840673879457057 5.8681190195210640 Ti
1.9849218972941340 5.8860425806345482 9.7611265945547796 Ti
1.9929695757347921 5.8697626929848292 13.6847325411070919 Ti
1.9577362010508790 9.7308170369255738 1.9515640613713796 Ti
1.9531338574002319 9.8065744921732474 5.8449418044488883 Ti
1.9463541016027872 9.7313789469257568 9.7686310252824260 Ti
1.9733245902904069 9.8005033877053638 13.6604960359005059 Ti
1.9458526011824175 13.6800972043635163 1.9932302038054537 Ti
1.9527663601515739 13.6401436095830029 5.8725363629361853 Ti
1.9797253497830274 13.6481618391111255 9.7728966357412865 Ti
1.9802711630651788 13.6648522890679569 13.7056562719175918 Ti
5.8521230751806010 1.9780656204151394 1.9844768548740510 Ti
5.8533496813189858 1.9450739061552433 5.9002556667064079 Ti
5.8609013078147596 1.9299925342023252 9.7386951845471241 Ti
5.8975000178480714 1.9350630170168654 13.6798036654268369 Ti
5.8811931402086772 5.8501040021244330 1.9872030794291755 Ti
5.8749597598412562 5.8515857549809498 5.8987444921114420 Ti
5.8454198429399558 5.8365471083072578 9.7960310255386300 Ti
5.8843573472426600 5.8682303224702892 13.7116731910482947 Ti
5.8801470598703602 9.8062717481899639 1.9512059084881577 Ti
5.8723367955394696 9.8068746625975631 5.8758392865185956 Ti
5.8865199727315236 9.7743556923511346 9.8022116567137729 Ti
5.8416399920888162 9.7749128298737080 13.6448501719199502 Ti
5.8665146028069497 13.7114925430125556 1.9767803249791038 Ti
5.8945224339230595 13.6687918551522323 5.8838903953137054 Ti
5.8492771993123416 13.6491516557692307 9.7940296094339594 Ti
5.8419652730611187 13.7132058470748479 13.6797798334138960 Ti
9.7423372161120305 1.9364136213749146 1.9762398127939880 Ti
9.7411730226617728 1.9580714698206998 5.8355079473888205 Ti
9.7742798358485672 1.9148138513545383 9.7641113524256049 Ti
9.7503340440601658 1.9247585712905988 13.6969298349498523 Ti
9.7366084054578188 5.8632422153239583 1.9752265808935427 Ti
9.7494855587049329 5.8949327386765509 5.8526840821576211 Ti
9.7814018808341601 5.8260021339333647 9.7578406286843400 Ti
9.8040418811535410 5.8603047237833170 13.6569923555122408 Ti
9.7757287285066230 9.7328457400510207 1.9418584946378110 Ti
9.7703781632204549 9.8047738751469602 5.8416031130036048 Ti
9.8016062820065653 9.7700868370187255 9.7958014837483951 Ti
9.7320717429532362 9.7802289032869947 13.6837523721341032 Ti
9.7413194987675595 13.6631282046185873 1.9317812006766966 Ti
9.7411233966321031 13.6609550700349569 5.8419853407901652 Ti
9.7679935754891787 13.7128119148402998 9.7496782760676179 Ti
9.7847992865903617 13.6487101344223447 13.6566140111435921 Ti
13.6603458119969297 1.9607269158576983 1.9192467822150441 Ti
13.6669070659761314 1.9366539291038083 5.8283762784081263 Ti
13.6727424984330597 1.9927794492601854 9.7623058702466174 Ti
13.6937049305766951 1.9816360013370502 13.7037067504603520 Ti
13.6566612952732065 5.8304550619735220 1.9444659455055138 Ti
13.6994512381312035 5.8958814669812991 5.8553679066156468 Ti
13.6414816690331957 5.8755208288385585 9.7763779722854061 Ti
13.6736807346259432 5.8672297058227221 13.6394304404090523 Ti
13.6948528893232933 9.7352356721860005 1.9637940760357917 Ti
13.6663514455839472 9.7508487084916418 5.8948399768958302 Ti
13.6405206007782045 9.7655566568045256 9.7810395004357513 Ti
13.6767345943296696 9.7335129183319715 13.6638851562569741 Ti
13.6513944613311704 13.6517604315152798 1.9649706689572333 Ti
13.6846447105077136 13.6489437162172607 5.8883131668869773 Ti
13.6819604595497690 13.6651784516434329 9.8080473612680485 Ti
13.6985876265940814 13.6997855876339329 13.7065123355328886 Ti
1.9288792311947602 0.0250607103922632 1.9724214972548353 O
1.9428263001061210 0.0212691635039225 5.8304019389895210 O
1.9493785145318037 0.0253934526150016 9.7400301160636822 O
1.9207707046130202 0.0220160755198504 13.6806712176175722 O
1.9752055436235652 3.9393962139497969 1.9405597648852706 O
1.9307927512062542 3.8776863780722128 5.8512387839242086 O
1.9541501082454749 3.9475804518340798 9.7777414193215204 O
1.9818630048878079 3.8815352845447526 13.6679605232293984 O
1.9504971387170915 7.8317844810619190 1.9908834699741578 O
1.9921784155908737 7.8277312681367492 5.8672417855136310 O
1.9500190118021645 7.8562457018362704 9.7703008629039587 O
1.9670645568842131 7.7853593732331854 13.6572300263734920 O
1.9581501967376329 11.6864017488746583 1.9649810188188781 O
1.9312842663848755 11.7275257264662542 5.8950645450924020 O
1.9580592229873848 11.7423850610460825 9.7349177869345951 O
1.9751469617423125 11.7576039577042248 13.6874004916543779 O
5.8719211321641973 0.0271202344351909 1.9263159157492993 O
5.8596426977372635 15.5981673371249450 5.8427108098764444 O
5.8788981785123191 15.6075260548130714 9.7444676494849194 O
5.8486093117383700 0.0374572054414301 13.6816898186500016 O
5.8602657767915591 3.8721323343791383 1.9712244528452649 O
5.8553899113112218 3.8724205341371416 5.8459274657615907 O
5.8874541426173872 3.8992275179678568 9.7407650542673050 O
5.8511882362694543 3.9423771114994972 13.6963904752763774 O
5.8658238566037841 7.8083988414276027 1.9150892072736838 O
5.8916925262553841 7.7949931342041605 5.8456724829724216 O
5.8518293154538599 7.8492342288950665 9.7909452811014877 O
5.8548201666870998 7.8098275569319764 13.6400764660564704 O
5.8575363357726253 11.7039271745986060 1.9879668813533531 O
5.8262752765401338 11.7316145770657396 5.8781897410958619 O
5.8760262907170793 11.7337765365501614 9.8070415999365963 O
5.8985870224902541 11.7350761180758969 13.6921549640009665 O
9.7703713268855932 0.0356491710374280 1.9359731773195668 O
9.7689434260779535 15.5955839515035333 5.8480650729668930 O
9.7620824696287212 0.0316927965876550 9.7476906319581005 O
9.7437454057299338 0.0176372546348273 13.6549390929679166 O
9.7414073127326049 3.8918546387288711 1.9760545516905428 O
9.7921936112374830 3.9216579550967348 5.8931988814173648 O
9.7789139218428804 3.8887224976517794 9.8044814070839905 O
9.8041451840414862 3.8896237219157705 13.6675459470346929 O
9.7778806060251373 7.7942205227472154 1.9865505623308852 O
9.7534157664955305 7.8490360628849780 5.8467128338641121 O
9.7933632427358468 7.8415305873541241 9.7918270433672383 O
9.7731282500484280 7.8209125940932003 13.6391306973526678 O
9.7345996588473849 11.7210836753567609 1.9369942910999356 O
9.7976524925971979 11.7470771387806359 5.8814526593363627 O
9.7797096574309137 11.6961424394286144 9.7970624282462584 O
9.7677834558443468 11.7501846381198547 13.6481072490488682 O
13.6776003632835828 0.0266602449855305 1.9243183347464006 O
13.6589343096722384 0.0339018898230915 5.8698285777740322 O
13.6611455227215970 0.0293845264895879 9.7911838645920550 O
13.6715044503471166 0.0373581597076828 13.6910937755303816 O
13.6968385801191239 3.9188709820543624 1.9881924001136917 O
13.6665138441027239 3.9462871516692619 5.8615702543189254 O
13.6692140866362539 3.9438802880207340 9.7551740999867178 O
13.7165426698130091 3.9192916562765991 13.6860829769016732 O
13.6729556821840337 7.7984085217685140 1.9188989991064891 O
13.6395242677062800 7.8176310139095344 5.8548536261448074 O
13.6406045494623136 7.8073196394238309 9.7781647643416996 O
13.6736046568685499 7.7942785308589686 13.6459187302307381 O
13.7122883750918305 11.7419487202583745 1.9406806620080275 O
13.6456909421565591 11.7438623025794477 5.8506777592636929 O
13.7004018661427480 11.6910412098259009 9.7693813404876497 O
13.6460631797400787 11.7017216983775487 13.6777910009580079 O
1.9565498690233543 1.9732903350945743 15.5978944204102508 O
1.9258821414016802 1.9817598774840248 3.9144467119096564 O
1.9570486212163940 1.9234364177157595 7.8419570542518029 O
1.9733800684261711 1.9360505701326836 11.7547273684411859 O
1.9177444780916091 5.8726618417767709 15.6198462208136686 O
1.9179578692939776 5.8452848183092438 3.9069048866966485 O
1.9463090341001008 5.8232301518251361 7.8134079379363239 O
1.9815494176030417 5.8593506771128592 11.7536396045836522 O
1.9821605432613498 9.7633445190346073 0.0275895014341376 O
1.9391752610104169 9.7609003148185085 3.9440516600911844 O
1.9327701976378373 9.8005573921351719 7.8007963416083843 O
1.9162878420540121 9.7666682551424717 11.7370922647176723 O
1.9533458676845641 13.6392389202420521 0.0058632461617283 O
1.9555017695537595 13.6576768360449385 3.8742885768655104 O
1.9277458386553417 13.6618662906848094 7.7915976179560440 O
1.9607032869013776 13.6917775517227263 11.6874272973919648 O
5.8564080270346288 1.9793927539728520 0.0304265601885283 O
5.9008679874299617 1.9443879214421365 3.9128321176002361 O
5.8368099726808724 1.9531208592908047 7.8472317620692671 O
5.8253387440365065 1.9404397262615487 11.7312975576486487 O
5.8694079906327339 5.8659247113681721 0.0392077643491215 O
5.8947883572581015 5.8730390037610114 3.8874231140076896 O
5.8807580905572454 5.8581793348242837 7.8517206232369743 O
5.8289714087390658 5.8468680849610042 11.7403983439635624 O
5.8499793438377088 9.7882744679015854 0.0336710143133186 O
5.8455943409536717 9.7583727513246252 3.9424438713341319 O
5.8284950832507390 9.7509247045035536 7.8247253193537949 O
5.8636629247570857 9.7342463784181970 11.7079885488983813 O
5.8721399924458710 13.6503882407036272 15.6065163177505610 O
5.8798119138750797 13.6904453590908570 3.8741814498199254 O
5.8942302117811050 13.6952385637460186 7.8341467566882779 O
5.8875456815604759 13.6481376223697328 11.7296510730273358 O
9.7562786101690051 1.9832453598707087 0.0233902340459184 O
9.7590792615267645 1.9302350581633314 3.8782663189229041 O
9.8019505723694085 1.9788204555103832 7.8186757380521676 O
9.8059942845506587 1.9417302948211708 11.7108349315258256 O
9.7560355051597583 5.8688220007900256 0.0366979109574792 O
9.7400510387542880 5.8529094071311221 3.8841546286776545 O
9.7902294751246686 5.8475518596861358 7.7849166947472037 O
9.7974812486177871 5.8870847808100990 11.7409229186094652 O
9.7383206529302573 9.7922876279897935 0.0093969727600418 O
9.7448701715049353 9.7546883750616207 3.9344430788475790 O
9.7481942146386658 9.8032026270172512 7.8223267673395709 O
9.7644456811215825 9.7945676196557176 11.7560960765425104 O
9.7770381902922665 13.6575260212820684 15.5996627626273021 O
9.7808445549889989 13.6411984641227342 3.8992493512951021 O
9.7784369763657093 13.6423969676466843 7.8310509453770818 O
9.8104593577031771 13.6774127811429445 11.7273302977255582 O
13.6922162527362001 1.9829456577949407 0.0242638682721686 O
13.7167771695180480 1.9442172797261905 3.9159575935242419 O
13.6912041938199174 1.9171573467935075 7.8074950973628754 O
13.6898191410779830 1.9925660998040933 11.7248151889216441 O
13.6622119045572230 5.8952484810439252 15.6173553945395440 O
13.6887937026819735 5.8281617703516453 3.9264433610129434 O
13.6696786702469986 5.8358356469790307 7.7879227271764160 O
13.6955581541431108 5.8968021115490394 11.7132097274566895 O
13.6768649672243789 9.7532675207928410 15.5969018387759917 O
13.7039738210636468 9.7888614397429290 3.8830945843051521 O
13.6714145454841578 9.7325111514739451 7.8263011651254493 O
13.6676898758712557 9.8057322066739765 11.7091846184933104 O
13.6634937740739417 13.6446036536898205 15.6188997495623436 O
13.6816518090320276 13.6611343108346919 3.9440028089437056 O
13.7076044794272711 13.7065259845585086 7.8152302018816462 O
13.6427998724126791 13.6623132140338477 11.7190072572885526 O
15.6290426587526579 1.9301972203373865 1.9859417644718922 O
15.6148914314413840 1.9808842251909502 5.8859766245441669 O
15.6213680457527531 1.9534790122495125 9.7322787520714034 O
15.6125101880949764 1.9799566363331758 13.6560866550002995 O
0.0005343440104521 5.8534409234278080 1.9151209374546647 O
15.6124459014788730 5.8340640401795554 5.8818719641221708 O
0.0282143884845428 5.8351719739006507 9.7624651279612920 O
0.0207146146412459 5.8307451665971373 13.6656652217159849 O
15.6230099318550781 9.7646873645374530 1.9924195531078890 O
0.0271792842462696 9.7417430231395432 5.8568440550127523 O
0.0289071457945807 9.7871669633572953 9.7926832417845606 O
0.0181991089948456 9.8057263940097457 13.6730643390412254 O
15.6127669123089436 13.6580775748733227 1.9264606939659155 O
0.0123072556548915 13.7158477470191418 5.8710576390289670 O
0.0053476122662457 13.6476260431777252 9.7460837724321525 O
15.6201838479129389 13.7030583996454673 13.6496540036749003 O
3.9375719148906163 1.9374013180102285 1.9326750362376841 O
3.9358456514007978 1.9445277701491097 5.8350408101527274 O
3.8938474156646108 1.9343008476612551 9.8022035550140139 O
3.8989332554634113 1.9914519009013283 13.6897308470335357 O
3.9400929795288504 5.8858930984642059 1.9595935084230887 O
3.9419190001998836 5.8571287809629666 5.8832653086029625 O
3.9426865593471772 5.8812832784314963 9.7632302848010752 O
3.8845336623844746 5.8942275291408652 13.6741185103198379 O
3.8922068389879900 9.7786417047853007 1.9183626509088370 O
3.9342452968073749 9.7473021386717793 5.8818792620419051 O
3.8978045067072551 9.7435039195554634 9.7981157921545261 O
3.8763303774659503 9.7908016184674960 13.6919614076451079 O
3.8878932444884100 13.6714716912247205 1.9204573146672428 O
3.9318148067427883 13.6510956650467552 5.8457238104191349 O
3.9172167500578752 13.7149162184985283 9.7559154445439198 O
3.8909602034410788 13.7147576040857562 13.6758300119088485 O
7.8461837457931987 1.9443520269627086 1.9291941516803008 O
7.8160005387809219 1.9819811322762051 5.8910345168650897 O
7.8450653348072148 1.9752631196776600 9.7888541972450867 O
7.8233849328155909 1.9647603747522766 13.7167290774648283 O
7.8393614366553912 5.8512990151790074 1.9232367503182339 O
7.8006476593208856 5.8684761031505230 5.8985703699263405 O
7.7937452575392232 5.8825216523256065 9.7965900670170072 O
7.7969502439414171 5.8815246991422550 13.6496182249373526 O
7.8184406855785253 9.8096756573653661 1.9459355517217471 O
7.8090161884981226 9.7397754085594492 5.8867612131624725 O
7.8502111543578996 9.7684266733972986 9.7919262288859397 O
7.8296701530313584 9.8030091512907589 13.6594816938161294 O
7.8187605554509974 13.6498131171228856 1.9266462594796032 O
7.7995307777031666 13.6649816279401808 5.8958475077100134 O
7.8470261996566775 13.7031083522338104 9.7619346204955910 O
7.8192329524078801 13.7066340670927858 13.6502070182337452 O
11.7177190561101074 1.9851897246914947 1.9299112136614289 O
11.7279204327463962 1.9922970240423417 5.8508706666454700 O
11.7356959922230768 1.9203923135242491 9.7890533437326130 O
11.7050934089195078 1.9414894443598734 13.6462912981482081 O
11.7245798863751034 5.8245674186828333 1.9409603268459643 O
11.7473877066790831 5.8947404480450460 5.8564285503745257 O
11.7470446439871754 5.8384487238687877 9.7935740049431388 O
11.7419659537250265 5.8277149589148340 13.6889138519522486 O
11.6924779890531791 9.7596054999541177 1.9330796347679440 O
11.7313629859506818 9.7547702892360153 5.8262075135225393 O
11.7062081121091115 9.7406687976402129 9.7514802970552825 O
11.6935660469261098 9.7860108600518707 13.6589699110997795 O
11.7182725610367946 13.7021537030780483 1.9222793960794922 O
11.7297524753919937 13.7089038867961950 5.8364960748821897 O
11.7247639516177955 13.6392871379921523 9.7767979214817551 O
11.7270936526801393 13.6755163710939875 13.7185916293373609 O
