Sr64 Ti64 O192
1.0
15.6329136064995993 0.0000000000000000 0.0000000000000000
0.0000000000000000 15.6329136064995993 0.0000000000000000
0.0000000000000000 0.0000000000000000 15.6329136064995993
Sr Ti O
64 64 192
cartesian
15.6159389324422317 0.0191702172205142 15.5786516196914810 Sr
0.0468215185131832 15.5967581126857766 3.9182546507340268 Sr
15.5735506028128707 15.6262940527829137 7.8221326557744328 Sr
0.0556185794909147 0.0024755834463205 11.7023145745301349 Sr
15.6306767030814964 3.9441294510696210 0.0480219836311009 Sr
15.6105504142371707 3.8539415398874715 3.8958661900697207 Sr
0.0472884155448358 3.9437637994298704 7.8064048751709958 Sr
0.0453992712829608 3.9263097098095949 11.6898718100200423 Sr
0.0239315043980689 7.8616167823550578 0.0314302304232349 Sr
15.6309061322876790 7.8306101500559873 3.8499561713477584 Sr
15.5835218890428742 7.7849910175653303 7.8034045016162086 Sr
15.6186259485536052 7.7977957567181164 11.7798905322694392 Sr
0.0321610052370575 11.7014437605905091 0.0450056108693894 Sr
0.0313806323341377 11.6829432403796751 3.8786841244395323 Sr
0.0395078627921199 11.7498037764283012 7.7789309969199456 Sr
0.0547724482919580 11.7080809295911301 11.7066775134509680 Sr
3.9096487835462552 0.0349017125085959 15.5841298696689208 Sr
3.9149803736719520 15.5734955673143265 3.9131179305238040 Sr
3.8566934974237457 15.6088109970159241 7.7973985277492348 Sr
3.9223441399695536 15.6329019223830556 11.7830011186072880 Sr
3.9062354634519285 3.8488242743885497 0.0081962103881170 Sr
3.9279769437840346 3.9085434143807376 3.8515724588690636 Sr
3.8669308350230320 3.8659137382225963 7.8266538740995122 Sr
3.9294592627898099 3.8905803571773778 11.6714142272097963 Sr
3.9287408103930321 7.8523391830548555 15.5894199758618299 Sr
3.9332577196111731 7.7646432404339683 3.9252251057016365 Sr
3.8818124775749903 7.7794139073321746 7.7773412971348872 Sr
3.8687693598007749 7.8180590400404837 11.6795142312789437 Sr
3.9188515412044169 11.6786859060344099 0.0370298988882753 Sr
3.9351175350353191 11.6757485915657604 3.8862697499748537 Sr
3.9144237466423890 11.6772650184692832 7.8526913671548595 Sr
3.9114392781153238 11.7467132899818818 11.6689675798474788 Sr
7.7713451399561029 15.5973142507658498 15.6156618324975351 Sr
7.7683217274024310 15.6003831758795588 3.8932355514341270 Sr
7.8638779840941178 0.0104308304312339 7.7812086914727798 Sr
7.7831763750498366 15.6028842581455969 11.6848022343702169 Sr
7.7789217680546630 3.8650407699642324 15.6148595320441608 Sr
7.8384311597812353 3.9528626346349696 3.9417681228317321 Sr
7.8356782892690209 3.9392754896388293 7.7688478460981427 Sr
7.8169199985867426 3.8633446178242612 11.7645001694209270 Sr
7.8170808055819165 7.8668407842703907 0.0325739938847859 Sr
7.7848006321657683 7.8621731865067028 3.9307650192550265 Sr
7.8763703356301722 7.8194427407431144 7.8152514754969253 Sr
7.7611739203382886 7.7953175421313370 11.7148396730780906 Sr
7.8700759036318511 11.7420200355640603 15.6123103126078320 Sr
7.8298754923332998 11.7709078211440410 3.9440530932285598 Sr
7.7830380032839903 11.7344116434037051 7.8653299063064566 Sr
7.8053646021556160 11.7269734627989397 11.6657638424451147 Sr
11.7629362941592586 15.5875613514296329 0.0089457883170420 Sr
11.7426364267792405 15.5898184069936594 3.9459186843470695 Sr
11.7403808958584897 0.0263757819715024 7.7649013630913322 Sr
11.7143833994979314 15.5744103026448037 11.7331253615114459 Sr
11.6996568411503112 3.8687532289096445 0.0376203634801769 Sr
11.7391081538059705 3.9592184419601226 3.9363707954594380 Sr
11.6982173435081425 3.8625097371715649 7.7880093774385895 Sr
11.7142527075845617 3.8501325671473778 11.7139131569425903 Sr
11.7833710901963009 7.8058708922259905 0.0066261113645700 Sr
11.7811981817067473 7.8091935854155077 3.9270307715891368 Sr
11.7134234395894872 7.7860804841035893 7.8669588020002275 Sr
11.7253834030548454 7.8061473766172957 11.7837887431935702 Sr
11.7268279467838035 11.7822005701749131 15.6159609839445519 Sr
11.7648722606383753 11.7114786393194166 3.8656774066273552 Sr
11.7615658859798167 11.7377203376958086 7.7709606421638462 Sr
11.7096279430725012 11.6696054054412173 11.7431105830631495 Sr
2.0125495708459948 1.9637358046423092 1.9637439603517031 Ti
1.9239950953148350 1.9631277030226399 5.8112388231061649 Ti
1.9215887958315985 1.9057915058786798 9.7561829817808725 Ti
1.9672336709566798 1.9926707508662889 13.6347395378811687 Ti
2.0091959722064385 5.8665440002794575 1.9775310049554731 Ti
2.0070757294874682 5.8498718910977203 5.8876320832364657 Ti
1.9383001823049022 5.9202113622570849 9.7716309359321123 Ti
1.9466338779850105 5.8720145813186431 13.7375403419660085 Ti
1.9184044460126635 9.7295900990943185 1.9795185083241438 Ti
1.9021068696399828 9.7866687626303648 5.8371215859352334 Ti
1.9618464356347898 9.7980003326545830 9.8233710464639916 Ti
1.9584463381003887 9.7392438136086241 13.7297880291712229 Ti
1.9290142472440412 13.7268890766866569 1.9284748585037452 Ti
2.0077585409895748 13.6646944707088362 5.8394660735000645 Ti
1.9571683934290312 13.7234679475967489 9.7306286296820126 Ti
1.9398472629309389 13.7340149800223479 13.6601528286736809 Ti
5.8201924039199433 1.9436238875649952 1.9127220023577471 Ti
5.8024433634786066 1.9540338587392048 5.8588677330420067 Ti
5.8892960272742698 2.0069730364262730 9.7794848352874464 Ti
5.9220461459938809 1.9599258632485586 13.6801076359887510 Ti
5.9088034559515492 5.8260100413588543 1.9430990250894058 Ti
5.8073090369184195 5.8656239790394897 5.8386668926513998 Ti
5.9187602750581272 5.8425736779618580 9.7756930974953171 Ti
5.8659539831360625 5.8650394654913507 13.6189689380379892 Ti
5.8335074415699548 9.7431879129754453 1.9990441442831828 Ti
5.9124126881885797 9.7377202096382707 5.8586261769264629 Ti
5.8306149187838532 9.7922461194972747 9.7244890828689883 Ti
5.8716462549371000 9.7933404993205926 13.7335259270076566 Ti
5.8907803085680932 13.6365343130279779 1.9224131154598449 Ti
5.9130206480422132 13.6608892191483342 5.8356787521561859 Ti
5.9206721986973907 13.6927767918383871 9.7720845682398512 Ti
5.8757759162824676 13.7336593941256275 13.6585527331785954 Ti
9.7196886379191376 1.9812967223287379 1.9706095134707435 Ti
9.7533245627948268 1.9588786033633918 5.9196126708146615 Ti
9.7227142002780003 1.9891157201026688 9.7797699158963844 Ti
9.7368122550879672 1.9731455168983285 13.7246050371720525 Ti
9.7992298954535073 5.8211003257900167 1.9869431904583246 Ti
9.8284006404752606 5.8781263414120613 5.8649129596726430 Ti
9.7793809224688957 5.8058977723491196 9.7889113010603630 Ti
9.7405555318502390 5.9142338575508804 13.6762757039154668 Ti
9.7941593371547917 9.7172593768174629 1.9683078945680639 Ti
9.7281700515948799 9.7954694829523277 5.8967261010787082 Ti
9.7421188048936802 9.8160481667438777 9.7974466442760342 Ti
9.7817424134505639 9.8066205059087643 13.6321557241333000 Ti
9.8041207746541552 13.6360885932108147 1.9286151931681927 Ti
9.7638624257369884 13.7377906064438147 5.8536804312233581 Ti
9.7834750365592775 13.6202128381120566 9.7716198344036389 Ti
9.8088954684333114 13.6708748629581596 13.7242794788314129 Ti
13.6575036997772141 1.9403063116176689 1.8997466083902879 Ti
13.6864051705344476 1.9981039176672528 5.9024307197805452 Ti
13.6974407985451041 1.9160191367485784 9.8130123113734644 Ti
13.6775696535346860 1.9556589759361205 13.7387669083820310 Ti
13.6555310794191982 5.8713434601985917 1.8995470902764320 Ti
13.6852847124423782 5.8812893756781142 5.9189019569249464 Ti
13.7376253319714206 5.8542717411835170 9.7791949008275498 Ti
13.6562297262453640 5.9107942507252709 13.7060583005304579 Ti
13.6934164614301235 9.7158406445959340 1.9343422652952917 Ti
13.6317304730488846 9.7884835792765266 5.8949563300606611 Ti
13.6993087998852427 9.8240174910932812 9.7526033171307347 Ti
13.6391173271203510 9.7804508566467270 13.6348935842789629 Ti
13.7286458591108858 13.7032773026532180 1.9313949657638456 Ti
13.6427860273492403 13.7121591107296492 5.8968413945925526 Ti
13.6489492840368563 13.7197334181973538 9.7384248245493250 Ti
13.6824893290900782 13.6402829207721457 13.6329424012595464 Ti
2.0062468012061943 15.6113666321023352 1.9745572893880499 O
1.9644369183638206 15.6216786391668521 5.9203703286670297 O
1.8986687126470077 15.6162231411468948 9.7548475754156101 O
2.0110093063057466 0.0082650240591377 13.6959643801470321 O
1.9075521673228129 3.8813796283803641 1.9807810418809650 O
1.9896050605500639 3.8948342882290650 5.8158560817950766 O
1.9196971925203283 3.9167550161411735 9.8189731360928825 O
1.9173959410485033 3.8623913240450869 13.6910766903563896 O
1.9225865648039115 7.8414445820107055 1.9095988205455239 O
1.9417415556331714 7.7668193262819774 5.8309891571476076 O
2.0030752577835589 7.7964307836784501 9.7422553998765746 O
1.8953487657282662 7.8228809422701033 13.6890636191111970 O
1.9645395085926185 11.7083210962010238 1.8973380711010568 O
1.9246367667515434 11.7754803951675253 5.8500572646601334 O
1.9478988714110681 11.7089469550532712 9.7130064561791070 O
1.9947833660827754 11.6860473844049864 13.7000864398996729 O
5.8882287078814981 15.5802305968685157 1.9665403845043765 O
5.9054670908184317 15.5988321635109699 5.8382857168184099 O
5.8660992482911167 15.5768636622718617 9.7494927839287353 O
5.8842065252154274 0.0437434950796607 13.6440362712057759 O
5.8404395372269553 3.8552459094451836 1.9364192507753490 O
5.9132663958846141 3.9044932884775521 5.8938515883099045 O
5.8182768204340611 3.8925362528924272 9.8081471045065030 O
5.8453446843104464 3.8755194329716276 13.7261406577723051 O
5.8602802262474665 7.8681092944737125 1.9845734646711644 O
5.8508546346587504 7.8243863587264961 5.9206962548188402 O
5.8379073066134488 7.7638737563317859 9.7551457165506132 O
5.9108294822415557 7.7942329579738043 13.7062789105589822 O
5.9139847611803349 11.6957029631510103 1.9444644803484132 O
5.8262275185411312 11.6954100072043108 5.9002723205555849 O
5.8215806583175924 11.7016665798296664 9.7330395930494156 O
5.8385953649190281 11.6995971126962086 13.6297417218741916 O
9.8190890010329728 0.0215276118798645 1.9261398215217731 O
9.7567840474398171 15.6322844546746893 5.8039514730162427 O
9.7165389560098188 0.0260464584154312 9.7720269529875523 O
9.7655981813999677 0.0472441822675556 13.7154498937690228 O
9.7458622891469240 3.8626226697461856 1.9239546811372283 O
9.8208201599096725 3.8770453615547078 5.8522114451193401 O
9.8007084772272552 3.9497556206874300 9.7394707984654829 O
9.8140001386404023 3.8672765476798951 13.6848703140425556 O
9.7573566415530291 7.8737534559727571 1.9660504569348494 O
9.7714315988205911 7.8735419558101523 5.8807964566099331 O
9.7610765320954052 7.8450193057501574 9.7186668765482640 O
9.8098492184419914 7.8189771105736430 13.6335128742883711 O
9.7814735546508178 11.6995981577653669 1.9007121928165160 O
9.7157346880955284 11.7073647796244060 5.8452259053159077 O
9.7454289828853948 11.6826824920232486 9.7358773319553453 O
9.7876730313813294 11.6964269996102335 13.6287095414748265 O
13.7038102482192450 15.5790000386828584 1.9458810385339300 O
13.6958694236612413 0.0404552113288184 5.9032325811938220 O
13.6617749668283945 15.5758799292191874 9.7629994693817324 O
13.6334810744585564 15.5944317975293600 13.6868863849151161 O
13.6795899662701466 3.9638711067531474 1.9316806460344966 O
13.7098504228167197 3.9122352532978781 5.9135263838030303 O
13.7333818872357547 3.8866468440255701 9.7581215430464852 O
13.6553212375263335 3.8595387917090278 13.6527591002731796 O
13.6822366086793394 7.8023400635407700 1.8958999130853116 O
13.6582507043722785 7.8608533037802060 5.8970802133932807 O
13.6939093672465741 7.8744525213683483 9.7734320775646744 O
13.6470502121250341 7.7708621605557049 13.7014514975497868 O
13.6530429843332630 11.7071251831563536 1.9028477166703484 O
13.6900435387578359 11.7648363926442805 5.8191980594199464 O
13.6629238022001243 11.6696547401387392 9.7884487322419442 O
13.6944096397230339 11.7614564035699800 13.6340311184755851 O
1.9573705823097927 1.9052725824239436 0.0346971510752009 O
1.9926080605000016 1.9265656130150186 3.8713597418076198 O
1.9952961510183649 1.9114122748140023 7.8254341354404113 O
1.9288683205348536 1.9244593217411790 11.6790427501173379 O
1.9789499808855968 5.8980284750415333 15.5915650572549609 O
1.9118379615200727 5.8580952977634757 3.9505920652330078 O
1.9215189537811248 5.8148312922352074 7.8331967337706452 O
2.0029299712013255 5.8297027706963300 11.7370003153191309 O
1.9209211332508251 9.7978710706297623 15.5910456398513499 O
1.9686551101935192 9.8279606090869542 3.9179749491921094 O
1.9864949947100481 9.7479216451432098 7.7713071551103292 O
2.0086000448811676 9.7466000807401958 11.7322143237612408 O
1.9134746696052178 13.6358373920765423 15.6227798071243118 O
1.9407510573926576 13.7289096667553814 3.8780557628006993 O
1.9644872677902621 13.6280731917539057 7.7861376558100543 O
1.9020892874239934 13.6773830525256130 11.7545415665191708 O
5.8174857935533311 1.9279177582766942 15.6028867336152377 O
5.8981666843873795 1.9315074404285126 3.9507203954282120 O
5.9094070004509494 1.9461558473077309 7.8528107170571353 O
5.8846223039493593 1.9853482627338364 11.7708159785125517 O
5.8947045002823266 5.8515954161756296 15.5835455444014457 O
5.8565708208776481 5.8783678748892516 3.9657599336788043 O
5.8369844765809260 5.8570871722281908 7.8705802353875178 O
5.8387133370853146 5.8614035408728613 11.6695419733562140 O
5.9143416551735299 9.7781094453630732 0.0289701642607332 O
5.8062852615289131 9.7848146345830749 3.8922692813527293 O
5.9033678020942402 9.7843270002480089 7.8580224809424521 O
5.8895131953883277 9.7667645526021829 11.7780450193981228 O
5.9160278509872217 13.6528844766876425 0.0068051850150447 O
5.9168292163413883 13.7029769443071494 3.9013979161699335 O
5.8830652215808845 13.6438497854698770 7.8606053830967246 O
5.8661632569597657 13.7381392786087062 11.7166738329151752 O
9.7724253695552896 1.9075878108552788 15.5950737285112719 O
9.7266637745597393 1.9383442206432036 3.8704995940254583 O
9.7711453118447338 1.8969683784952618 7.8347331585282269 O
9.8258654707624711 1.9591944270086414 11.7019538772818468 O
9.7298618040872569 5.9063658129209324 0.0021720902638350 O
9.8063040145568010 5.8809684380328209 3.8637735907562591 O
9.7655181925234391 5.8025870881867352 7.8183926782969051 O
9.7965445509499283 5.8390112155081901 11.7734809141741383 O
9.7763279427760210 9.7761367990710184 15.5734503440380916 O
9.7385820163998194 9.7203803110893361 3.9158178026046753 O
9.8186489253586462 9.8057740930256205 7.8234750659446908 O
9.7758908427057687 9.7660817612441821 11.7842800537773300 O
9.7608609517866363 13.7320761037233936 15.6070812947339128 O
9.8123943380728793 13.6746483822114033 3.8654081057788998 O
9.8229424929072238 13.6541779525171609 7.8323001362311766 O
9.7345945862586358 13.6421036864063456 11.7556548924495576 O
13.6221266595222392 1.9438659543093759 0.0168277534371101 O
13.6324143103908479 1.9506003405482075 3.9461239913471395 O
13.6769880429960242 1.9559205988988697 7.8764022442036721 O
13.7261252161983620 1.9172344493433104 11.7242958579456094 O
13.6891331971333958 5.8050263341169712 0.0144242206088190 O
13.6239116893019645 5.8853360064637856 3.9158862055722889 O
13.6443641250421965 5.9023217688019614 7.8450203762702406 O
13.6803126509145088 5.8892954269028879 11.6711011088926657 O
13.6784078987202307 9.7276361433286578 15.5910036499727553 O
13.6867154929017136 9.7131494595526799 3.9237236198985141 O
13.7238970659788144 9.7902375810195323 7.8507995868731566 O
13.7377939815219658 9.7596336685790934 11.7245639011279685 O
13.7359734499721178 13.6737700063806251 15.6154255018934442 O
13.6340425332601765 13.6757073921414474 3.9480688562255790 O
13.6761568555233595 13.7165793271878158 7.7699197807834288 O
13.6957908498425027 13.7043995063468476 11.6731495310969287 O
0.0395516538381316 1.9905157914592264 1.9807711113058497 O
0.0017735619290484 1.9878196548224416 5.8127361830134063 O
0.0108939236805705 2.0023160754283165 9.8045989588987990 O
0.0472143107180150 1.9229245345709425 13.6588491279154951 O
0.0208539570946601 5.9107216962583928 1.9828296279300952 O
15.5972716205386490 5.8301921825989229 5.8983425932841875 O
0.0362498370689819 5.8849116875818055 9.8127205676212519 O
15.5866200578099132 5.8630286885624336 13.6406361165790955 O
0.0409567210483503 9.7746591967316512 1.9104583457450541 O
0.0395020121887187 9.7908338036392824 5.8219816065831438 O
15.5865527805183461 9.7688759109139429 9.7325210306909771 O
15.6024917297411552 9.7189422170917474 13.6817956984713813 O
0.0190463661617047 13.6767585136286467 2.0109742983821848 O
15.5939507437265892 13.6333667398666698 5.8665578368289699 O
15.6079652813864360 13.6442794693984855 9.7283104423921216 O
15.5786228460666543 13.6533064925205192 13.6804195013297747 O
3.8958270935543351 2.0019152150767026 1.9881916213933517 O
3.8606166885954880 1.9729336492774439 5.8310543755480166 O
3.9127428089387526 1.9471347113735102 9.8299924383581008 O
3.8491428268276073 1.9570929377190807 13.6888005044925158 O
3.9458281326204370 5.8397291239001454 1.9131887708512307 O
3.8757789343527662 5.8582775962733313 5.9126467553339159 O
3.9179727091834118 5.9141223173192996 9.7418671785863804 O
3.8789942597920914 5.8225599086574409 13.6447009859743034 O
3.8823675645954450 9.8023883457935757 1.9979191534238609 O
3.9160967308550463 9.8123448302745775 5.9046868681495797 O
3.8860065799955672 9.7179113530274872 9.7523185577502822 O
3.8908874266575504 9.7247796038981758 13.7134755972051821 O
3.9024086159523277 13.6407095397660747 1.9081218948380805 O
3.9199891990661988 13.7359525673538183 5.8763139930284254 O
3.8538426524545457 13.6642472951543876 9.7913177234709075 O
3.9160594785250211 13.7168600694809761 13.7245165808640746 O
7.8546898523751079 1.9990943061135233 1.9648391288628377 O
7.8098338448968088 1.9002224846083513 5.8368118494670291 O
7.7794584478626279 2.0011182984652263 9.7659087618449263 O
7.8503946456077829 1.9243647627295648 13.6392621600845878 O
7.7667727519481442 5.8751260727828232 1.9852281515770349 O
7.8337416944779781 5.8098684314364517 5.8857454636512800 O
7.8731729674468447 5.8440613468780134 9.7635658335469913 O
7.7910174756860346 5.9126447907547526 13.6582438598762455 O
7.8536474666169598 9.7941033443292653 1.9133332797847458 O
7.8143917182507616 9.8123681600537154 5.9053394997088020 O
7.8667933195913795 9.7410809181924218 9.7565506631967889 O
7.7765730946727851 9.7883441662635722 13.7199504019753231 O
7.8231146343744280 13.7269984040794473 1.9190067964838016 O
7.8724457052978600 13.6994936169884198 5.8562604592237353 O
7.7664886884251780 13.6981556672070166 9.7435798454941533 O
7.8738732020968571 13.6651736562178190 13.6896481887910042 O
11.6848744469961758 1.9985406211634320 1.9476801715977492 O
11.6805394871308117 1.9934984584401347 5.8723443950763317 O
11.7062276239786218 1.9032519954738254 9.7965007895522298 O
11.7573703077311720 1.9376858002044868 13.6312411077284743 O
11.7160339089254730 5.8102942958883430 1.9255462316200216 O
11.7560283113208239 5.8876282785749492 5.8178651445449381 O
11.6835114842195207 5.8912455995064956 9.8032717913284628 O
11.6969998954478136 5.8733656643737318 13.6267223882275790 O
11.7147685759211040 9.7729908842091380 2.0132395308349658 O
11.7442841745089339 9.8247401958083493 5.8455622849537434 O
11.7220154653499975 9.7444940405144429 9.7166000446211136 O
11.7124557698457110 9.7227326398857112 13.6447122844859567 O
11.7006717221514069 13.6747182409029957 2.0089475550915998 O
11.7652057711059879 13.6676813706524456 5.9051733508462085 O
11.7600093322051240 13.7264087367146601 9.7798207406777795 O
11.6984791290311243 13.6272361347799347 13.6628472684563480 O
