Sr64 Ti64 O192
1.0
15.6329136064995993 0.0000000000000000 0.0000000000000000
0.0000000000000000 15.6329136064995993 0.0000000000000000
0.0000000000000000 0.0000000000000000 15.6329136064995993
Sr Ti O
64 64 192
cartesian
15.6284908271652299 15.6325894926695739 15.6239506843653473 Sr
15.6248563592471790 15.6303708606621434 3.9028790829468361 Sr
15.6286691751480422 0.0068508719547529 7.8105364691408550 Sr
15.6254138881556468 15.6263087970375452 11.7243236571857885 Sr
0.0026678362910838 3.9168516556954316 0.0043037354424991 Sr
0.0000083761156165 3.9170510870523843 3.9035209445950017 Sr
0.0009425039945852 3.8982783932850178 7.8167869854062921 Sr
15.6317256162502627 3.9127984992020939 11.7335001289981609 Sr
0.0016639474634831 7.8262324494203597 0.0012915187907082 Sr
0.0059251571784974 7.8228757498184445 3.9033612014688597 Sr
0.0021503414825575 7.8217197580773297 7.8246834269796004 Sr
0.0047830778698429 7.8102853475183540 11.7184373812339526 Sr
15.6273560309074018 11.7240618950358222 15.6246235619652332 Sr
0.0073133202912046 11.7265228085330637 3.9147963966852672 Sr
15.6308362843438218 11.7328211520545160 7.8110262327320399 Sr
0.0018204435445214 11.7345157082871978 11.7249024327690226 Sr
3.9029808411312397 15.6274787347500244 15.6263618679569642 Sr
3.8997881368107219 0.0030203657362572 3.9037967743068820 Sr
3.9002517259979967 15.6327366642231134 7.8224851809232661 Sr
3.9087515940090833 0.0001127080935454 11.7146995368141837 Sr
3.9108480700377610 3.9090874406056018 0.0096124601136386 Sr
3.9147653445402555 3.9138756018994862 3.9031907924320302 Sr
3.9065555317234342 3.9011970413092452 7.8095458352709812 Sr
3.8987004590146639 3.9104568865659317 11.7226231271643186 Sr
3.8983704965786767 7.8180413574659644 15.6323560259801333 Sr
3.9166426952696005 7.8189403842059830 3.9034292883635962 Sr
3.9003081917734868 7.8139110001292558 7.8220056015324015 Sr
3.8992892694133525 7.8190908946899889 11.7283119772123570 Sr
3.9010109059881524 11.7262895108704246 15.6261805567444281 Sr
3.9132369848294162 11.7330989101536183 3.9061977224865543 Sr
3.8988114083790890 11.7273471367140267 7.8185145586023914 Sr
3.9105886912724528 11.7182613887787088 11.7319765435408545 Sr
7.8236720417696608 15.6323261968107534 15.6260146730342768 Sr
7.8105269742356223 0.0052816601160794 3.9021504748171085 Sr
7.8095755517718217 0.0060711969580562 7.8124832726291338 Sr
7.8204074197547264 15.6283447854318478 11.7326550545145505 Sr
7.8081631476413458 3.9055344600341275 0.0048946864408161 Sr
7.8072595825282942 3.9120769205833152 3.9074537837664267 Sr
7.8076453989848043 3.9046708803467096 7.8133418077066104 Sr
7.8195321364142902 3.9176672344830630 11.7258896799483399 Sr
7.8219295783260856 7.8111768291155892 0.0064938899056296 Sr
7.8144555686090129 7.8095845407718940 3.9152117438295546 Sr
7.8246994193485557 7.8162016307381981 7.8221131418922258 Sr
7.8120904859916429 7.8089037876134624 11.7295726611045232 Sr
7.8069901837569216 11.7279039891024244 0.0001501448382154 Sr
7.8236926562010396 11.7306550053076997 3.9116930682550604 Sr
7.8175362801805974 11.7147466798014062 7.8167026668775152 Sr
7.8163075315629156 11.7148295006019243 11.7229991410410630 Sr
11.7177551806976208 0.0048694971395676 0.0053162733670162 Sr
11.7208287141964433 0.0073191839678499 3.9026108375893682 Sr
11.7326386005526810 15.6328177681263281 7.8103959194697143 Sr
11.7290696565356587 0.0057955909216434 11.7315545359557909 Sr
11.7164743623349814 3.9044664264856697 15.6286206345872998 Sr
11.7175335597010726 3.9091995130234909 3.9151501726383078 Sr
11.7267293511789870 3.8985521031243575 7.8179369090619204 Sr
11.7268492124396566 3.9030458232764023 11.7329591370064303 Sr
11.7150055523120784 7.8140744259767345 0.0007928460101332 Sr
11.7329932715987582 7.8198588953136836 3.9126331487115582 Sr
11.7199016131803422 7.8094157276005145 7.8217047079938613 Sr
11.7291008114726409 7.8252698572972683 11.7263682071707702 Sr
11.7317308131339804 11.7305338370371501 0.0040190678129527 Sr
11.7240081386787338 11.7328516568884513 3.9139599496595388 Sr
11.7192060090619528 11.7322020131246703 7.8127858351242541 Sr
11.7254701248125546 11.7290550963557685 11.7157248505773044 Sr
1.9628505354683887 1.9575472921831527 1.9575624381041457 Ti
1.9466493786756640 1.9489983715892367 5.8665975668114747 Ti
1.9554667612217616 1.9640217650554443 9.7704673165022680 Ti
1.9495486956650010 1.9496822935283566 13.6710848505752942 Ti
1.9569868714097483 5.8541418099432416 1.9491649820753143 Ti
1.9504013809362897 5.8715602956613164 5.8612249709256128 Ti
1.9530732818088228 5.8524001259175318 9.7708232901711813 Ti
1.9505096876589265 5.8714197774651300 13.6809470505463171 Ti
1.9635254958175949 9.7739514187299825 1.9541321730211980 Ti
1.9576418180726218 9.7640596400270532 5.8690625767577540 Ti
1.9475118343931173 9.7632226196153091 9.7721234227186802 Ti
1.9532749175346169 9.7633700926709039 13.6719115556079469 Ti
1.9534503748836041 13.6855202373046243 1.9614891419990428 Ti
1.9624604172189297 13.6739169072879854 5.8597927237974172 Ti
1.9507772178189209 13.6709457617286763 9.7757849105702768 Ti
1.9462369748878741 13.6847310988734403 13.6804620324272470 Ti
5.8719758187341045 1.9547158632471622 1.9567293769240337 Ti
5.8578408054417777 1.9517803271578620 5.8537236200394620 Ti
5.8679905732426070 1.9621878758252693 9.7722786918470419 Ti
5.8704851031146648 1.9496200989219323 13.6751247994609564 Ti
5.8636187448066170 5.8675592626908513 1.9625497159984300 Ti
5.8585874948459287 5.8715404966353573 5.8634818606605368 Ti
5.8626773581095328 5.8633683199538238 9.7606293823526702 Ti
5.8626448479368385 5.8541571873605660 13.6845359227209258 Ti
5.8708341894780203 9.7668695263456335 1.9578814295344849 Ti
5.8668378539042960 9.7703395170358167 5.8534129256231804 Ti
5.8620596798321980 9.7653887252657068 9.7791187488685924 Ti
5.8559363295654654 9.7702091350498481 13.6711294175053570 Ti
5.8566548423710829 13.6822574040231526 1.9466515181221047 Ti
5.8644090550486867 13.6737931185101953 5.8707489608824170 Ti
5.8603485388458063 13.6868492050723720 9.7761588874048506 Ti
5.8624622212379212 13.6741436049215732 13.6699501565340373 Ti
9.7747800669263434 1.9588323925733329 1.9618616169180707 Ti
9.7691741933065792 1.9446864510086823 5.8593149873114774 Ti
9.7696937447816996 1.9564682008869851 9.7802503170442634 Ti
9.7635529307478635 1.9549035877918837 13.6858792019519182 Ti
9.7715419043572691 5.8549572109152921 1.9474423686290796 Ti
9.7608742001898712 5.8607712988867640 5.8642142326926470 Ti
9.7644617956420738 5.8650560172064772 9.7780084063486346 Ti
9.7718889843728629 5.8524591259569725 13.6795608651822356 Ti
9.7648198490240485 9.7785177247114952 1.9521715617184840 Ti
9.7804637072296945 9.7720245216743997 5.8621952572916065 Ti
9.7784757143379242 9.7707623161509769 9.7766930098726306 Ti
9.7630826396309818 9.7753368975154569 13.6741939027029797 Ti
9.7699543065853636 13.6705285800936611 1.9597010718709305 Ti
9.7772952448085046 13.6827693785464870 5.8560956910499096 Ti
9.7611749936287566 13.6822083957615366 9.7708772304595914 Ti
9.7735325599369531 13.6692492592645714 13.6789539699402951 Ti
13.6875039970713246 1.9589241451095141 1.9530680054704221 Ti
13.6886012354314062 1.9531455581650043 5.8606146368456482 Ti
13.6736935221770555 1.9455783475635340 9.7716050073960528 Ti
13.6871037837421685 1.9589790634055722 13.6815142568928945 Ti
13.6839289765472341 5.8574759494096442 1.9470429073593891 Ti
13.6769850289371036 5.8719367082853768 5.8601836281471531 Ti
13.6783441689238767 5.8658155442098749 9.7799375100775148 Ti
13.6844243054514401 5.8540745857054715 13.6787793566704927 Ti
13.6750261407666489 9.7667751236680598 1.9625613165256819 Ti
13.6755709778808061 9.7709029058943244 5.8718013071622623 Ti
13.6750936575753030 9.7771619638230316 9.7771152137443487 Ti
13.6826592549575938 9.7788113576240256 13.6746523420529194 Ti
13.6841229129000279 13.6823791657144707 1.9617852886819247 Ti
13.6787433142643895 13.6884623474372749 5.8597688094219853 Ti
13.6787672851829214 13.6747935644995771 9.7614084604932856 Ti
13.6748385575700713 13.6877493612739798 13.6767475827934337 Ti
1.9524455494196855 0.0089400190789305 1.9499558764626927 O
1.9478274277891328 15.6281314019239463 5.8562101474354851 O
1.9609902629039559 0.0071769107052541 9.7716717868939469 O
1.9541110218544770 0.0028673186286691 13.6692192974531093 O
1.9529696623928752 3.9177385882252382 1.9569858523638837 O
1.9549677437623423 3.9039177036188875 5.8713253273654340 O
1.9592962653425199 3.8998350928724466 9.7689282699412860 O
1.9578524188011781 3.9149800055180446 13.6851587744560454 O
1.9471571520427544 7.8221684841636083 1.9584703658179212 O
1.9563254405021606 7.8142437222834884 5.8718406386381226 O
1.9444127037727055 7.8187165074680376 9.7714511699749611 O
1.9444600366216003 7.8157316933130083 13.6813036679249524 O
1.9542583545371406 11.7313180489591424 1.9615964864963247 O
1.9514970080900960 11.7162884912704186 5.8671013315640934 O
1.9453167837694763 11.7238946844964023 9.7752593439500437 O
1.9534283954334581 11.7345319117259503 13.6771956491072295 O
5.8568691310897218 15.6308891969934791 1.9622347228128043 O
5.8600527288623336 0.0090124313445728 5.8586639396001479 O
5.8638497775309100 0.0073754182926097 9.7639883276881285 O
5.8530258352954254 15.6293902342286746 13.6796846728014465 O
5.8558497406713590 3.9158115767716231 1.9546957511386185 O
5.8566149527895996 3.9138779502010892 5.8682820157415323 O
5.8529680060457645 3.9117031869798939 9.7703641001435013 O
5.8701168638491037 3.9100972143339043 13.6727937085119340 O
5.8564288243757323 7.8244552890102197 1.9530887962199768 O
5.8709378424807630 7.8215309481525450 5.8629548949344690 O
5.8605829701542884 7.8066146149506004 9.7703838578318063 O
5.8714944962124660 7.8178410220948180 13.6750143325678994 O
5.8720600834358443 11.7265968266986000 1.9554984930670989 O
5.8558028768012225 11.7178296794053924 5.8591435777197409 O
5.8673541248180756 11.7332137522110429 9.7720367884117447 O
5.8567976169076710 11.7319892295155999 13.6827874327082188 O
9.7638694235355619 0.0060492564612629 1.9498135828672958 O
9.7797179687864197 0.0039884300104859 5.8616903276591961 O
9.7696916726582774 0.0068811723900247 9.7633684876394469 O
9.7731989521323026 15.6270634581630219 13.6864720619013394 O
9.7758670283590181 3.9160217616389010 1.9507652209169908 O
9.7752204269435747 3.9058635989950004 5.8538108631426784 O
9.7637582120479696 3.9018094157544194 9.7670521284798042 O
9.7662537056709127 3.9039750986296884 13.6708451396473993 O
9.7753715752218646 7.8248418320339166 1.9566921474431935 O
9.7649020947438299 7.8083772225789199 5.8639500362065311 O
9.7742124171684512 7.8143620288455713 9.7796458060317359 O
9.7643632943675183 7.8089946475950045 13.6812036879770655 O
9.7752293181582388 11.7158568593889996 1.9547145555144516 O
9.7614933024384296 11.7233595130374333 5.8663222851359462 O
9.7644076102352653 11.7309806576685371 9.7658402693778612 O
9.7742707190536535 11.7240892111718757 13.6880707001215089 O
13.6750493193517482 15.6236501786719799 1.9544688236536902 O
13.6859278524771000 15.6316400516109031 5.8692392178614758 O
13.6805308351316963 15.6284404844117226 9.7793455884322054 O
13.6769548978695923 15.6272851230372734 13.6707422371506642 O
13.6819762264119689 3.9043470691455240 1.9454630119769827 O
13.6733030464881207 3.9109705173108713 5.8702337897447201 O
13.6711446245385897 3.9017951002153111 9.7707012290255033 O
13.6833789445396974 3.8993678378415022 13.6780795214337125 O
13.6725619971715027 7.8086765373336453 1.9533644026509964 O
13.6699470723551251 7.8204782073095114 5.8600049745868876 O
13.6852114115808181 7.8178186671014407 9.7781229248291215 O
13.6848796636239900 7.8167846193214752 13.6708670037782305 O
13.6694055875610445 11.7279723424805340 1.9531390560160382 O
13.6789292756846255 11.7313530089023246 5.8697940132589954 O
13.6702117399216654 11.7295487344253591 9.7721828592077884 O
13.6716881056852522 11.7255866137172369 13.6857719858682323 O
1.9516441673595564 1.9564577682860702 15.6235111267076423 O
1.9631097250226663 1.9505930694775839 3.9108133925931696 O
1.9517533283102484 1.9630797004127278 7.8202046156711651 O
1.9466721431909195 1.9501214391891735 11.7193304282241275 O
1.9582523178879734 5.8555088982044428 15.6268989183508733 O
1.9569918458676447 5.8670714035947782 3.8999002806753809 O
1.9505804595282272 5.8606155175184771 7.8072627915998600 O
1.9582877825002352 5.8711279416791555 11.7270087862272128 O
1.9561930861157852 9.7787052273886719 15.6274810521490704 O
1.9448983253655394 9.7732481711908203 3.9054176337738076 O
1.9475865877626353 9.7691732578858232 7.8090112291619134 O
1.9583404428227305 9.7645717325278429 11.7314784087967823 O
1.9484975034076322 13.6855869587388899 0.0047309442855005 O
1.9478538338939761 13.6710254986881932 3.9088401009118563 O
1.9584738659633456 13.6827881474143140 7.8245242228624141 O
1.9637478892691647 13.6795497552130598 11.7272598936535477 O
5.8695956998276895 1.9545632040553653 15.6260440377843111 O
5.8626576551861698 1.9639257555317713 3.9101347425585269 O
5.8693506267357431 1.9543933150740433 7.8235848949062001 O
5.8539327003000894 1.9577021861072654 11.7206355249409402 O
5.8670191182541860 5.8541968379030580 15.6294818839049299 O
5.8622020488763180 5.8678932571214837 3.9165452806834145 O
5.8555220210086611 5.8680859568086747 7.8209837834286828 O
5.8525415333852422 5.8633985886667039 11.7230047470444507 O
5.8641061183439778 9.7628677110349784 0.0061277473987656 O
5.8604286771318863 9.7639235598814924 3.9154497848572740 O
5.8660245731877723 9.7617564352569719 7.8194142460928768 O
5.8609399596207403 9.7738913547392947 11.7340130055002732 O
5.8575926981137467 13.6720193687573150 15.6273038375073234 O
5.8699485955787472 13.6723113740409250 3.9079953486468004 O
5.8646105224216303 13.6712214143743953 7.8103387490976388 O
5.8666491091226511 13.6836840171259251 11.7170960961482642 O
9.7796085318268542 1.9523052465692672 0.0038795330195891 O
9.7742107052631635 1.9633949663850334 3.9074410227105205 O
9.7691826925379619 1.9628053631745146 7.8212040432803587 O
9.7711904406761843 1.9621301361716050 11.7306317230659740 O
9.7665616968075870 5.8715023895091916 0.0001541302573066 O
9.7800178309018815 5.8648333533346078 3.9103623235142373 O
9.7802912356286154 5.8641173462688814 7.8149181731354913 O
9.7660211370772902 5.8677559617903379 11.7317558661545629 O
9.7691481966905833 9.7653346478319403 0.0083997733667299 O
9.7713056005280521 9.7606435041137587 3.9072770274581314 O
9.7627810272135935 9.7643017299046253 7.8163451688736503 O
9.7632315975448556 9.7730816398278950 11.7183741178031493 O
9.7681441293205999 13.6879058524807089 0.0033440851939535 O
9.7639313594624131 13.6781841733847056 3.9007761127951581 O
9.7708204599678901 13.6859855896151164 7.8095072325936652 O
9.7791748503585669 13.6742323300857649 11.7269469850056094 O
13.6804739905250674 1.9637515650824247 15.6308358732278769 O
13.6802563986650600 1.9635314467719247 3.9112603399489876 O
13.6756736890286543 1.9621493060954529 7.8113905444267733 O
13.6832923674989786 1.9470541295458426 11.7192108384394054 O
13.6875949051760966 5.8642842663861572 0.0043438611683416 O
13.6704228569060469 5.8677192857397769 3.9091900185877280 O
13.6851657876656247 5.8653969829022845 7.8093758470658079 O
13.6836493868277866 5.8606564647118109 11.7161041430228092 O
13.6831874378917639 9.7783712294597720 0.0044611273372454 O
13.6709387512958163 9.7766841591446152 3.9091446152893865 O
13.6688904219525593 9.7693823191613820 7.8158250837281118 O
13.6816244364005613 9.7720236131576605 11.7341672472857113 O
13.6711740567264410 13.6733600787634249 15.6294110680138338 O
13.6781502382773983 13.6708300883114582 3.9022226908226991 O
13.6880797691035792 13.6825214479851685 7.8166025975937803 O
13.6798679422554201 13.6886107574779619 11.7262962932146699 O
0.0059940594485568 1.9470236879998821 1.9503999203461979 O
15.6291268019227783 1.9452563128309055 5.8650254985597101 O
0.0065727313710449 1.9569599067405850 9.7635923824150570 O
0.0043166165273241 1.9484404052223225 13.6858118849461192 O
15.6327005607400746 5.8622430931770744 1.9641114359007863 O
0.0059782517714943 5.8550819899740247 5.8657402505083009 O
0.0030261075216981 5.8532483457082769 9.7734235762020631 O
0.0010777494850099 5.8614168311554762 13.6886979613182085 O
0.0095913800294875 9.7728231640299157 1.9558268609100715 O
15.6291502736104970 9.7614631627942057 5.8640409996234970 O
15.6283526749276511 9.7655194294851828 9.7632443747220705 O
0.0046553179731354 9.7767884976164137 13.6850978807782226 O
0.0082283402891099 13.6771629726157862 1.9595563054503229 O
0.0009151051473140 13.6774638418277661 5.8524745300953533 O
15.6313663332002957 13.6885658992793360 9.7720614899732841 O
0.0051307865932997 13.6775310712292431 13.6703102151110745 O
3.9069832503999167 1.9485448259824085 1.9623258792297664 O
3.9015566235587276 1.9613571479380876 5.8606027477391152 O
3.9124312679101814 1.9569553761904630 9.7791886393213776 O
3.8997845356187555 1.9556074292315300 13.6736543696563011 O
3.9166549332689198 5.8592872072283937 1.9496804524468547 O
3.9131779755459437 5.8559189840733454 5.8564912055858489 O
3.9030169728772917 5.8590937237438929 9.7626788688857697 O
3.9101879179052426 5.8545278128557516 13.6728757784417514 O
3.9139704117617744 9.7787513528717120 1.9544476868594696 O
3.9089809315528741 9.7655235626433932 5.8709424299839181 O
3.9137474385397004 9.7623460563061961 9.7719459462222300 O
3.9040269478039415 9.7777377339551919 13.6843658918707263 O
3.9122132720975511 13.6828637473796118 1.9623362403357731 O
3.9062619736724153 13.6773012247432142 5.8526529886696643 O
3.9028712917678421 13.6757010035444608 9.7784260201756386 O
3.9142611016861828 13.6788281137910577 13.6708240871470927 O
7.8125003084087643 1.9583268814559258 1.9459533509566462 O
7.8078743405864852 1.9499328759213048 5.8593663872590520 O
7.8165173729437702 1.9459555359690413 9.7763530901291542 O
7.8101987233102887 1.9519171565965290 13.6862833506484662 O
7.8184490413488570 5.8718752373115644 1.9563857332712902 O
7.8127806503871193 5.8679636572318428 5.8697513569296724 O
7.8128494189582085 5.8715818801098800 9.7718447884485098 O
7.8066233319004033 5.8628083266870092 13.6805560906742567 O
7.8121700793501017 9.7703676618437658 1.9631465122635658 O
7.8237393362762893 9.7648429113302413 5.8585804665584149 O
7.8109067425582239 9.7627976663333698 9.7676092399135293 O
7.8100495841816935 9.7781952754167101 13.6797038558664514 O
7.8119901270951875 13.6872333470844207 1.9511279930773480 O
7.8252381840390237 13.6761709244241949 5.8663399062392765 O
7.8206824219254409 13.6834875382562586 9.7628143578912248 O
7.8191293674518656 13.6804203393004986 13.6693004597031482 O
11.7257263861427390 1.9463373065878835 1.9603138667540141 O
11.7148127930920847 1.9541125785461924 5.8639349224311790 O
11.7249617530824821 1.9549593748396288 9.7805313856790619 O
11.7249124623394145 1.9619237772293650 13.6725577015742417 O
11.7298049232770811 5.8555379815396851 1.9488715280285167 O
11.7306567475457353 5.8609607183447308 5.8544412687219207 O
11.7269985625728950 5.8613344937531551 9.7802473718229876 O
11.7326942359069157 5.8663149401924706 13.6743187857876016 O
11.7216554243233038 9.7622789402538093 1.9588112325993507 O
11.7202358641772335 9.7795005033859717 5.8630262757405207 O
11.7165687556033831 9.7740872355633890 9.7659063103684964 O
11.7279716378185643 9.7638016657753042 13.6722134040425711 O
11.7258070329221500 13.6689110231555251 1.9531336944431501 O
11.7315238794195107 13.6777626763834803 5.8551205720565607 O
11.7307440141687636 13.6806177852703517 9.7783159589123141 O
11.7236082044712671 13.6841247003991118 13.6871947202352633 O
