SYSTEM = Perfect
PREC = Accurate
ADDGRID = .TRUE.
ENCUT = 500
ISTART = 0
ICHARG = 2
IBRION = -1
EDIFF = 1E-7
EDIFFG = 1E-4
ISIF = 3
ISYM = 2
SYMPREC = 1E-4
ISMEAR = 0
SIGMA = 0.05
LREAL = .FALSE.
LWAVE = .FALSE.
LCHARG = .FALSE.
LOPTICS = .FALSE.
LORBIT = 11
LEPSILON = .FALSE.
LRPA = .FALSE.
NEDOS = 5000
NELM = 200
NSW = 0
NWRITE = 0
NPAR = 8
GGA = PE

ALGO = Normal
ISPIN = 1
!LSORBIT = .TRUE.
!LNONCOLLINEAR = .TRUE.
!GGA_COMPAT = .FALSE.