Sr1 Ti1 O3                                [CUB,CUB,cP5] (STD_PRIM doi:10.1016/j.commatsci.2010.05.010)
1.000000
   3.90822840162490   0.00000000000000   0.00000000000000
   0.00000000000000   3.90822840162490   0.00000000000000
   0.00000000000000   0.00000000000000   3.90822840162490
Sr Ti O 
1 1 3 
Direct(5) [A1B1C3] 
   0.00000000000000   0.00000000000000   0.00000000000000  Sr    
   0.50000000000000   0.50000000000000   0.50000000000000  Ti    
   0.50000000000000   0.00000000000000   0.50000000000000  O     
   0.50000000000000   0.50000000000000   0.00000000000000  O     
   0.00000000000000   0.50000000000000   0.50000000000000  O  