Sr64 Ti64 O192
1.0
15.6329136064995993 0.0000000000000000 0.0000000000000000
0.0000000000000000 15.6329136064995993 0.0000000000000000
0.0000000000000000 0.0000000000000000 15.6329136064995993
Sr Ti O
64 64 192
cartesian
15.6058099646632602 15.6000252966621744 0.0261486457631169 Sr
0.0374328370647370 15.6309093970022293 3.9413156477112019 Sr
0.0372009834892276 0.0313910784475371 7.8278886456793790 Sr
0.0286625891179361 15.6164443854162869 11.6871722638814166 Sr
0.0418272824444219 3.9142822503628203 15.6061960213023365 Sr
0.0457584896682158 3.9200336468805981 3.8918944857521947 Sr
15.5975878747066101 3.9350773237429748 7.7934084181786636 Sr
0.0118317255977648 3.8904979197753637 11.6794564498314468 Sr
15.6110685000844871 7.8570221903896122 0.0194226849819831 Sr
0.0056990603731343 7.7775958569042318 3.8772873680288731 Sr
15.5964656037287153 7.8506224747448536 7.8143952540009280 Sr
0.0458446547345046 7.8353471679885631 11.7311211781740887 Sr
0.0131732498675291 11.7352265047915498 15.5858461391363470 Sr
0.0399659938878681 11.7041577010635063 3.9301678847509072 Sr
0.0230677463675117 11.6944027122657932 7.8488736155378023 Sr
15.5877836575620030 11.7372700454722612 11.7072235469916741 Sr
3.8867605779157457 0.0428307480501781 0.0143059276754382 Sr
3.9205517612306480 15.5895377680726686 3.9298309813039145 Sr
3.9378475110373068 15.6137081010838248 7.7810469611244724 Sr
3.9577534508611540 15.6280165905231847 11.7295110449749611 Sr
3.8627254757166072 3.8924067276293757 15.6195286012413330 Sr
3.9190570893446210 3.8761148430835104 3.8714662080005038 Sr
3.9371525717398783 3.8976524216670234 7.7770671976273702 Sr
3.8636663640517677 3.9020088977192873 11.7464921436442484 Sr
3.9135119443268493 7.7831733070503759 0.0369363378972498 Sr
3.9149372441775032 7.8658686055986333 3.9118979002614958 Sr
3.9562627546719216 7.8241722620894576 7.8049167589583961 Sr
3.8752407904269850 7.7828159353567310 11.7079487322816931 Sr
3.9110000373307980 11.6747677520637403 0.0007522900899559 Sr
3.9124087661875699 11.6750115137640069 3.9043491022599630 Sr
3.8646500391450638 11.7014317340002361 7.8242158248290012 Sr
3.8651753838754765 11.7483788718747793 11.7339073416529747 Sr
7.8360427617919024 0.0035010684862554 0.0458708267577717 Sr
7.8635656291205098 15.6251874850027885 3.8933601276262348 Sr
7.8596340226369685 0.0165802163424661 7.7974614313916542 Sr
7.8077851449900209 15.6076402977737576 11.6824233756540643 Sr
7.8257840549725231 3.9572604381600121 0.0029768722714142 Sr
7.8289265204642824 3.8967587182292931 3.8611863723808790 Sr
7.8608161574278137 3.8934403449612320 7.8341644591370541 Sr
7.7977343108105064 3.8891809414824161 11.6824162737434172 Sr
7.7698834548714553 7.7999671387344867 0.0076820690573593 Sr
7.8335061537670176 7.8526400303407815 3.9382299636546207 Sr
7.7945061802517683 7.7767959700770763 7.7953573136340744 Sr
7.7705719651470533 7.8357263569093503 11.7295086822558545 Sr
7.8461230194003440 11.7593078213552626 0.0205229151766703 Sr
7.7913965091413635 11.7506486723475856 3.9428388049161529 Sr
7.7814163670136614 11.6897561367827745 7.8092368288307981 Sr
7.8495161081765303 11.6964067164191388 11.7493308829629584 Sr
11.7351190073875760 0.0472476397346261 0.0126014405775393 Sr
11.7475443442251617 15.6162758801246149 3.8669895145251330 Sr
11.7681950048894866 15.6086501839677609 7.8207210299926819 Sr
11.6851958930087978 15.6091095645351050 11.7440232977100916 Sr
11.7229763916306666 3.9113381173933459 15.5830396691661939 Sr
11.7084040371088669 3.9527918128023698 3.8924478452212563 Sr
11.6911801902251504 3.9111882317987954 7.7794614873479810 Sr
11.7690776687557275 3.9155517118767125 11.7028751549543664 Sr
11.7411389718198489 7.8631079034227573 0.0072765655337647 Sr
11.7614406551713291 7.8488406874177929 3.9182444347561218 Sr
11.7258188227746789 7.8598124861845804 7.8413365071812251 Sr
11.6799343116836685 7.8333532750833950 11.7392408497653005 Sr
11.7063808282016453 11.7661749234389603 0.0210606991353362 Sr
11.7321051632255653 11.6955082015587184 3.8683078969240468 Sr
11.6925736556480206 11.7554722595251224 7.8392823519225967 Sr
11.7423383139250799 11.7714096330124480 11.7224058286320556 Sr
1.9287569187455682 1.9112452183504109 1.9497257399376096 Ti
1.9522286389632866 1.9915465041419833 5.8292477792174147 Ti
1.9208078609796444 1.9799467630528533 9.7436755313012551 Ti
1.9601632363478971 1.9070116589270094 13.6631546072857244 Ti
1.9593262285995829 5.9112275752184402 1.9632298029614128 Ti
1.9833864760969129 5.8290171578517045 5.8854196179038203 Ti
1.9284613856934534 5.8563576076114678 9.8130693912481739 Ti
1.9364827636798330 5.8931148328833585 13.7140442955013651 Ti
1.9644888942440903 9.7567244360552667 2.0010251621181774 Ti
1.9613496713558478 9.7514120299948690 5.9079559960701520 Ti
1.9666383585778298 9.7676729190106286 9.8188902194460006 Ti
1.9507868835575493 9.7692447927697259 13.7286709418926112 Ti
1.9484680390101914 13.6336000557394730 1.9334952866506823 Ti
1.9639593455347573 13.6918364225214315 5.9095983885112204 Ti
1.9506251573371935 13.6304708026536048 9.7829068341702676 Ti
1.9898305508001319 13.6787145554167147 13.7137899064550588 Ti
5.8213411709258036 1.9683111428681475 1.9789603162084461 Ti
5.9085727480477557 1.9707229016503394 5.8716659437546062 Ti
5.8449750422467499 1.9310597254709325 9.7297438192492667 Ti
5.8168597247244573 1.9537628562475182 13.6580344257461341 Ti
5.8613792935553990 5.8442250165259564 1.9075220864931657 Ti
5.8809853547488045 5.8981467082140320 5.8918470732135875 Ti
5.8879404324865625 5.8215990469953027 9.7841619490887179 Ti
5.8578732401457270 5.9120321548749475 13.6754868267435636 Ti
5.8323537159146683 9.7693717007424752 1.9141238475172244 Ti
5.8489444567238307 9.7224800653826406 5.8651267195960539 Ti
5.8339309048528394 9.7298328705105970 9.7763312050217674 Ti
5.9068899219037645 9.7480364414190959 13.6815796601429458 Ti
5.8828673667433904 13.7243922892081809 1.9542659322162266 Ti
5.8617419237283368 13.7287532278837272 5.8644053271017862 Ti
5.8969660719342532 13.6599538675961281 9.8013291095639978 Ti
5.8774121360142946 13.6816788078368159 13.6312114008851637 Ti
9.7637751879751722 1.9227318851992363 1.9157870935584016 Ti
9.7542427549590158 1.9759040703890258 5.9042781466100260 Ti
9.7853714594982097 1.9535920854948623 9.8183274058790033 Ti
9.7850536363664489 1.9088250924074199 13.6633349295751412 Ti
9.7416619752768430 5.9014453180678421 1.9657437186444717 Ti
9.7738027309303437 5.8126336006311794 5.8580331847406875 Ti
9.7612161139234530 5.8413704959733197 9.7261564030739205 Ti
9.8052623045668614 5.8291226849173370 13.6649087343836353 Ti
9.7461725358567932 9.8134293735321911 1.9458755774077103 Ti
9.7798788172099531 9.8120222559463190 5.8359767470245103 Ti
9.7209108411104967 9.7736137068570947 9.7656101396912351 Ti
9.7491609205259877 9.7482086690416843 13.6395370280795909 Ti
9.7481839253073801 13.6443427965406290 1.9826021068595290 Ti
9.7680625751378169 13.7237324145166539 5.8405542454121271 Ti
9.7303206982578576 13.7040735002359142 9.7860994626912632 Ti
9.7516258510588720 13.6344077360167955 13.6657433403703372 Ti
13.6993631132861964 1.9092086763548528 1.9463278150675132 Ti
13.6482820338660513 1.9827636028820881 5.8896903953681345 Ti
13.7116021045064755 1.9894164898492452 9.7572394122994108 Ti
13.6914750801097096 1.9058737750923913 13.6753081875214146 Ti
13.6397425365148095 5.8806893183914850 1.9793720507635661 Ti
13.7236404092500131 5.8682967181495016 5.8836459567638748 Ti
13.6298502098308791 5.8538720460659341 9.7648942180187834 Ti
13.7004081594589078 5.8741634154552003 13.7223118193185325 Ti
13.7216817521466847 9.7450442873461274 1.9571949630264656 Ti
13.6433563215359968 9.8035826333677534 5.8499321183029478 Ti
13.6604965529630515 9.7587224253146871 9.7255752624434830 Ti
13.6356049676582494 9.7670038457320079 13.7037296264004613 Ti
13.6490187448364679 13.7003955107147775 1.9202509392014879 Ti
13.7223953900589830 13.6951506244684023 5.8441209726798746 Ti
13.7065184703319733 13.6824037908409668 9.8120277509543889 Ti
13.6880654754507471 13.6361365587983148 13.7031719608768707 Ti
1.9872227668461020 15.5974054119475021 1.9660720841889388 O
1.9167392066580773 15.6187481450462329 5.8923833999263282 O
1.9839545968031964 0.0141469205562359 9.7330288223742993 O
1.9221009499519017 15.6040130928541174 13.7040958892444920 O
1.9781558861602495 3.8950650058823233 1.9122964727756264 O
1.9512575838201269 3.9230595588266324 5.9100068082464947 O
1.9148098524678312 3.8786574445858903 9.7615862001688996 O
1.9152577559701276 3.9311224780724414 13.7003873179954212 O
2.0002732890984198 7.8227751192305890 1.9359643398825439 O
1.9987754646464402 7.8272414196579767 5.8426179082273215 O
1.9045241514265681 7.8183609327155983 9.7766702903223983 O
1.9061275833701274 7.8077116769172372 13.6897906436461660 O
1.9216115220805123 11.6936712574909123 1.9760621151307669 O
1.9068043408751463 11.7177051154787470 5.8769390233937768 O
1.9160986616118381 11.7261150932456157 9.7381245219951058 O
1.9301604683154590 11.7265630346022274 13.7226479228225884 O
5.8453012716740851 15.6251999339136542 2.0004832885871067 O
5.8582545792070313 0.0497804104353852 5.8600625140721823 O
5.8415585639403051 0.0448867706468067 9.7632770637927973 O
5.8799164557368737 15.5959826466934803 13.7075616011528201 O
5.8447496814288389 3.9386965563214473 1.9185870185462532 O
5.9105588512118370 3.9126633746266397 5.8498716614708215 O
5.8577861015444306 3.8676547098805218 9.7417090249574638 O
5.9062405303012468 3.8854829731529263 13.6862571139733742 O
5.8300495486302415 7.7838324260630882 1.9739336026447605 O
5.9112279127630423 7.8268399729551525 5.8638970223389180 O
5.8774947874535695 7.8326734651353256 9.7257666385771238 O
5.8637996892602953 7.7664849696026241 13.6796317156833069 O
5.8157138702921278 11.7167753398173211 1.9703374980513961 O
5.9045309139656998 11.6991561221755571 5.8540714291876128 O
5.8553075261698995 11.6907693793935437 9.8066296297133064 O
5.8852939249568221 11.7414045470814390 13.6376448143177633 O
9.7318776285918656 15.6173848207368398 1.9817127425754177 O
9.8108890173880408 0.0088494968457137 5.8341265749522666 O
9.8003161428225987 0.0383713270708164 9.7825237434533641 O
9.8074103072378946 0.0330486570721225 13.6859164280463972 O
9.8130255234085819 3.9293646791163042 1.9699531263087784 O
9.7304912235466254 3.8794969395889036 5.8705957402099527 O
9.7490045872885513 3.8633335084959990 9.7661734776566735 O
9.7839467385177752 3.9240932789031695 13.7242900134729400 O
9.8124993537654426 7.8273181979109321 1.9790950654328296 O
9.7765204772873542 7.7794594250549558 5.8954454387969664 O
9.7303170982857328 7.7939657529753443 9.7899042843655906 O
9.8125429500657031 7.8232960586639795 13.7050973207007516 O
9.7330617863211923 11.7212258601031873 1.9212342446353847 O
9.7496126491320929 11.7506110335751508 5.8996065094361665 O
9.8184366178087963 11.7110510753736161 9.7657758467745257 O
9.7938825549237798 11.6948931631325568 13.7114950605248271 O
13.7105798546211286 15.5979610621369300 1.9377336419657474 O
13.6600998220048133 15.6025438841320945 5.8272996925492118 O
13.7089666431953425 15.6028084555385291 9.7444249208615989 O
13.7017730670101550 0.0442303970793045 13.6827847362409205 O
13.6691773280225632 3.8921498548369526 1.9077580150914000 O
13.6297239984641259 3.9003905969160564 5.8568495865771446 O
13.7068715777559937 3.9457312128483730 9.7880493422462340 O
13.6439875596052484 3.9334732782873512 13.7043108065633792 O
13.6629121628801222 7.8051999094908124 2.0001671904970451 O
13.6660109502477827 7.8068782351440715 5.9097209354654252 O
13.7272033932454995 7.8071088051827591 9.7789177950976995 O
13.6960424980069710 7.7903041256274097 13.7177700769724815 O
13.6752311375140980 11.7724864620744256 1.9398907247123247 O
13.6386261143959526 11.7444882169205336 5.8845675294506208 O
13.6832377488340509 11.6833848278772248 9.7427397272324523 O
13.6423802145622304 11.6904334463255299 13.6781215014932371 O
1.9725541181183721 1.9282165803297715 0.0385912257266584 O
1.9880558804828041 1.9271721194777713 3.8832867369949948 O
1.9673260388265115 1.9690599930691099 7.8623051470596987 O
1.9178492301187509 1.9274224526230996 11.7029503830631096 O
1.9717760425092503 5.8522557003504607 15.5872374228349511 O
1.9344814547074030 5.8351000353649400 3.9452742896515085 O
1.9781892949432902 5.8200420330501546 7.8279045834761218 O
1.9329373362984914 5.8630456979467498 11.6793967287901364 O
1.9349080195739858 9.7553449260502347 15.5893327718287562 O
1.9797677139831920 9.7542760820159753 3.8685248403551036 O
1.9634371876880115 9.8189247531648522 7.8251168761964109 O
1.9216749298307383 9.7642580974907673 11.6871639987534284 O
1.9141256603157759 13.6683177788622672 15.6047879575639783 O
1.9180397501408457 13.6950673950739539 3.9387895948289091 O
1.9168756783919374 13.7116686417465683 7.8221931582603608 O
1.9444690153803688 13.6307161883853851 11.7149397129993655 O
5.9050302255248761 1.9798499609953004 15.6289845502582097 O
5.8506524975338863 1.9091318330547915 3.8897912641502046 O
5.8840712865128593 1.9948088244476847 7.7971743787255496 O
5.8627274503205049 2.0016812339218846 11.7400874531934587 O
5.8126463124018564 5.8570650970432903 15.6313558216865296 O
5.8537298372665481 5.8434425467381299 3.9537103559659244 O
5.8326148264125930 5.8395980570746131 7.7833064640529752 O
5.8295826050212929 5.8689406568360640 11.6874931593884455 O
5.9064863511635846 9.7774570047397660 15.6104656123116055 O
5.8271268818979172 9.7388264837539964 3.8923495333627258 O
5.8436216074396867 9.7616998585184263 7.7709504616803216 O
5.8991356381641724 9.7990761232873957 11.7064169071990793 O
5.8715881289941265 13.6506167367642188 15.5926611853169117 O
5.8579960228638592 13.6655377552976027 3.9562412735964534 O
5.8575442142995557 13.6296023418705623 7.8239817207314566 O
5.8845424139530342 13.6422301360741294 11.7505667985010263 O
9.7960095190765717 1.9970767846943205 0.0026642710183491 O
9.7734201622571035 1.9505270903988707 3.8584386944911810 O
9.7528055419385336 1.9887973205881213 7.8477852177988501 O
9.7823685764758501 1.9824550694323817 11.6852186056924321 O
9.8100601507857608 5.8449080786165837 15.6076817878930818 O
9.7958799141989257 5.8741652934182973 3.9496974629316455 O
9.7897041574795036 5.8227843797130783 7.8403119799460352 O
9.7960941194210136 5.8691761937840106 11.6822367347999130 O
9.8083665892585596 9.7495993299209527 0.0251332971052280 O
9.7760427377166863 9.7715678659838137 3.9579181027421755 O
9.8005946388453768 9.8097491215221702 7.8084783029705456 O
9.7614579135244011 9.7320930860913943 11.7552858814926591 O
9.7931262337064791 13.7149986784044451 15.6068200388931029 O
9.7823741790732210 13.7257277957516894 3.8956422478990533 O
9.7811611105385268 13.6300990280029275 7.8204721311611065 O
9.7270599383500311 13.6643320103438075 11.7446221462792000 O
13.6689992064890671 1.9675361461787593 0.0471572632609414 O
13.6478864261963171 1.9155367546863640 3.9007338469757955 O
13.6465714354120493 1.9766140063923043 7.8473617653241323 O
13.7252288226855299 1.9718441050611593 11.7301587533144236 O
13.7047596829463938 5.9038981032935149 0.0099601382127109 O
13.6693746067889794 5.8418789606071684 3.8635919531911904 O
13.6696470486986019 5.9011648602123836 7.8466075356256937 O
13.6573144660490300 5.9073046502379922 11.7287854032015009 O
13.6525740449087198 9.7604572006415200 0.0413514380935912 O
13.6683393921758949 9.7870235148606604 3.9542708060557348 O
13.6745077766588849 9.7695523268908087 7.7666517410863571 O
13.7217018382524216 9.7872737157627547 11.7441890686414485 O
13.6899873545900519 13.6311296827609745 15.6227929684027362 O
13.6425802984973270 13.7017603398178043 3.9339377730333926 O
13.7004769239904238 13.6767724840809048 7.8614676551525688 O
13.7133385337906137 13.6426813114876868 11.7262763997877268 O
15.6080706157627684 1.9126804605438634 1.9412273478760245 O
0.0321449192645764 1.9243421585700948 5.8382525699302459 O
15.5851808239541434 1.9446844822570848 9.7590531102254889 O
0.0289540758078904 1.9395756749640014 13.6407166962212383 O
0.0136765191647024 5.8716311794929235 2.0013018597904093 O
0.0226331149982618 5.8955860616267817 5.8326337733356173 O
0.0064397276881026 5.8430186707110714 9.7249079383532848 O
0.0177998903199442 5.9054151546301430 13.6969079437892987 O
15.5991484481496450 9.8067501065202034 1.9469737087468115 O
15.6081857073174568 9.7271325679414460 5.8636205967318951 O
15.5937073238420911 9.7650648098973178 9.7400333350942727 O
0.0250335389482624 9.7919485746243566 13.6411653598697260 O
0.0040628157761840 13.6383973394915543 1.9249394416001511 O
15.5872316217123892 13.6588708449989920 5.8583415107363912 O
0.0199028005194555 13.6852547517548437 9.8159825338606268 O
0.0205981282081073 13.6754272393967113 13.6333643354348428 O
3.9130402420288726 1.9104392189119248 1.9302533092131082 O
3.8816523106231129 1.9791116964090250 5.8965308548197681 O
3.8894968748005914 1.9514030362223507 9.8168503675993097 O
3.8983747347175237 1.9701722290784969 13.7251140359532453 O
3.9049173402022341 5.8585240882264147 2.0038581031671732 O
3.9352170620752474 5.8496899188295730 5.9024863666432301 O
3.8632652377638861 5.8818236483280808 9.7805109611351408 O
3.8638557497633301 5.8451068579960124 13.6635024491164820 O
3.9561718365224734 9.7643980100578034 1.9413344826918026 O
3.8660505524681121 9.7961951451485838 5.8703695840677570 O
3.9427131902399100 9.7478853179514608 9.7423547144432909 O
3.9136237628423802 9.7952684955199274 13.6356609774238162 O
3.9410153173421678 13.6584710018636937 1.9859225983788058 O
3.8969231363031374 13.6868549718055856 5.8143082519107105 O
3.8676984919236124 13.7080429686789227 9.7720340294043808 O
3.8793414052512536 13.7194636058769355 13.6822583453272610 O
7.8536200228360116 1.9558305087653283 1.9207083720246811 O
7.8539497726855112 1.9778651300971382 5.8853680362227623 O
7.7859342763597246 1.9569385376004171 9.8100728834346640 O
7.8241650133494334 1.9252134504452163 13.6387328345177732 O
7.7982314882691863 5.8718875669704556 1.9996853709304010 O
7.8332496442632040 5.8353151934160250 5.9009109787616456 O
7.8269149108181688 5.8975537530413975 9.8044944894260411 O
7.8394634192895785 5.8916061516779994 13.6454176695993077 O
7.7704955367715494 9.7747870966350821 1.9348843659943129 O
7.7700407825099598 9.7890718336656466 5.8605336462009925 O
7.8060337228409979 9.7603070665992782 9.8183832512646969 O
7.7951413388898247 9.8125627324899973 13.6619962594707722 O
7.8157867404648078 13.7005061419041496 1.9090767872691556 O
7.7720781153248071 13.6631287059928912 5.8792233971209154 O
7.7928626139570030 13.6423713256211183 9.7953965798726639 O
7.7668746657792544 13.6741703423509424 13.6743068099473142 O
11.7016003067343366 1.9871842859013171 1.9245598957104160 O
11.6970249263870585 1.9295905004265252 5.8960100513066589 O
11.7410996936380254 1.9314452172961027 9.8120038623389121 O
11.7679377501827549 1.9673703790683956 13.7000947352788991 O
11.6946867437952822 5.8445451177938947 1.9899379621062150 O
11.7323389090478649 5.8649682707062469 5.9116835253976205 O
11.6748465371466619 5.8652429871880685 9.7733449844861138 O
11.6787766704753757 5.8802567161021653 13.6872546408057083 O
11.7114436632927479 9.7931341676238262 1.9967236507810542 O
11.7623270404778637 9.7633439504563988 5.8944496407405413 O
11.6906042125982790 9.7994848488985902 9.7481550378275639 O
11.7509304677530864 9.7341483597650846 13.7008125190254884 O
11.6932062320268244 13.6703274815539366 1.9162024510516698 O
11.6748183783536419 13.6752506692234093 5.8615023154448549 O
11.6756540144746133 13.6885774626711605 9.7699948360591087 O
11.7570821960041201 13.6407751445874936 13.6809419587402648 O
