Te125 Pb125
1.0
0.0000000000000000 16.1027568429597387 16.1027568429597387
16.1027568429597387 0.0000000000000000 16.1027568429597387
16.1027568429597387 16.1027568429597387 0.0000000000000000
Pb Te
125 125
direct
0.0000000000000000 0.0000000000000000 0.0000000000000000 Pb
0.0000000000000000 0.0000000000000000 0.2000000000000000 Pb
0.0000000000000000 0.0000000000000000 0.4000000000000000 Pb
0.0000000000000000 0.0000000000000000 0.6000000000000001 Pb
0.0000000000000000 0.0000000000000000 0.8000000000000000 Pb
0.0000000000000000 0.2000000000000000 0.0000000000000000 Pb
0.0000000000000000 0.2000000000000000 0.2000000000000000 Pb
0.0000000000000000 0.2000000000000000 0.4000000000000000 Pb
0.0000000000000000 0.2000000000000000 0.6000000000000002 Pb
0.0000000000000000 0.2000000000000000 0.8000000000000000 Pb
0.0000000000000000 0.4000000000000000 0.0000000000000000 Pb
0.0000000000000000 0.4000000000000000 0.2000000000000000 Pb
0.0000000000000000 0.4000000000000000 0.4000000000000001 Pb
0.0000000000000000 0.4000000000000001 0.6000000000000001 Pb
0.0000000000000001 0.4000000000000000 0.8000000000000000 Pb
0.0000000000000000 0.6000000000000001 0.0000000000000000 Pb
0.0000000000000000 0.6000000000000001 0.2000000000000001 Pb
0.0000000000000000 0.6000000000000001 0.4000000000000001 Pb
0.0000000000000000 0.6000000000000001 0.6000000000000001 Pb
0.0000000000000000 0.6000000000000002 0.8000000000000000 Pb
0.0000000000000000 0.8000000000000000 0.0000000000000000 Pb
0.0000000000000000 0.8000000000000000 0.2000000000000000 Pb
0.0000000000000001 0.8000000000000000 0.4000000000000000 Pb
0.0000000000000000 0.8000000000000002 0.6000000000000002 Pb
0.0000000000000000 0.8000000000000000 0.8000000000000002 Pb
0.2000000000000000 0.0000000000000000 0.0000000000000000 Pb
0.2000000000000000 0.0000000000000000 0.2000000000000000 Pb
0.2000000000000000 0.0000000000000000 0.4000000000000000 Pb
0.2000000000000000 0.0000000000000000 0.6000000000000002 Pb
0.2000000000000000 0.0000000000000000 0.8000000000000000 Pb
0.2000000000000000 0.2000000000000000 0.0000000000000000 Pb
0.2000000000000000 0.2000000000000000 0.2000000000000000 Pb
0.2000000000000000 0.2000000000000000 0.4000000000000000 Pb
0.2000000000000000 0.2000000000000000 0.6000000000000001 Pb
0.2000000000000000 0.2000000000000000 0.8000000000000000 Pb
0.2000000000000000 0.4000000000000000 0.0000000000000001 Pb
0.2000000000000000 0.4000000000000000 0.2000000000000000 Pb
0.2000000000000000 0.4000000000000000 0.4000000000000000 Pb
0.2000000000000000 0.4000000000000000 0.6000000000000001 Pb
0.2000000000000000 0.4000000000000000 0.8000000000000000 Pb
0.2000000000000000 0.6000000000000001 0.0000000000000000 Pb
0.2000000000000000 0.6000000000000001 0.2000000000000000 Pb
0.2000000000000000 0.6000000000000002 0.4000000000000000 Pb
0.2000000000000001 0.6000000000000001 0.6000000000000001 Pb
0.1999999999999999 0.6000000000000003 0.8000000000000000 Pb
0.2000000000000000 0.8000000000000000 0.0000000000000000 Pb
0.2000000000000000 0.8000000000000000 0.2000000000000000 Pb
0.2000000000000000 0.8000000000000000 0.3999999999999999 Pb
0.1999999999999999 0.8000000000000000 0.6000000000000003 Pb
0.2000000000000000 0.8000000000000000 0.8000000000000000 Pb
0.4000000000000000 0.0000000000000000 0.0000000000000000 Pb
0.4000000000000000 0.0000000000000000 0.2000000000000000 Pb
0.4000000000000000 0.0000000000000000 0.4000000000000001 Pb
0.4000000000000001 0.0000000000000000 0.6000000000000001 Pb
0.4000000000000000 0.0000000000000001 0.8000000000000000 Pb
0.4000000000000000 0.2000000000000000 0.0000000000000001 Pb
0.4000000000000000 0.2000000000000000 0.2000000000000000 Pb
0.4000000000000000 0.2000000000000000 0.4000000000000000 Pb
0.4000000000000000 0.2000000000000000 0.6000000000000001 Pb
0.4000000000000000 0.2000000000000000 0.8000000000000000 Pb
0.4000000000000000 0.4000000000000000 0.0000000000000000 Pb
0.4000000000000000 0.4000000000000000 0.2000000000000000 Pb
0.4000000000000000 0.4000000000000000 0.4000000000000000 Pb
0.4000000000000000 0.4000000000000000 0.6000000000000002 Pb
0.4000000000000000 0.4000000000000000 0.7999999999999999 Pb
0.4000000000000001 0.6000000000000001 0.0000000000000000 Pb
0.4000000000000000 0.6000000000000002 0.2000000000000000 Pb
0.4000000000000000 0.6000000000000002 0.4000000000000000 Pb
0.4000000000000001 0.6000000000000001 0.6000000000000000 Pb
0.3999999999999999 0.6000000000000003 0.8000000000000002 Pb
0.4000000000000000 0.8000000000000000 0.0000000000000001 Pb
0.4000000000000000 0.8000000000000000 0.2000000000000001 Pb
0.4000000000000000 0.7999999999999999 0.4000000000000000 Pb
0.3999999999999999 0.8000000000000000 0.6000000000000002 Pb
0.3999999999999999 0.8000000000000000 0.7999999999999999 Pb
0.6000000000000001 0.0000000000000000 0.0000000000000000 Pb
0.6000000000000001 0.0000000000000000 0.2000000000000001 Pb
0.6000000000000001 0.0000000000000000 0.4000000000000001 Pb
0.6000000000000001 0.0000000000000000 0.6000000000000001 Pb
0.6000000000000002 0.0000000000000000 0.8000000000000000 Pb
0.6000000000000001 0.2000000000000000 0.0000000000000000 Pb
0.6000000000000001 0.2000000000000000 0.2000000000000000 Pb
0.6000000000000002 0.2000000000000000 0.4000000000000000 Pb
0.6000000000000001 0.2000000000000001 0.6000000000000001 Pb
0.6000000000000003 0.1999999999999999 0.8000000000000000 Pb
0.6000000000000001 0.4000000000000001 0.0000000000000000 Pb
0.6000000000000002 0.4000000000000000 0.2000000000000000 Pb
0.6000000000000002 0.4000000000000000 0.4000000000000000 Pb
0.6000000000000001 0.4000000000000001 0.6000000000000000 Pb
0.6000000000000003 0.3999999999999999 0.8000000000000002 Pb
0.6000000000000001 0.6000000000000001 0.0000000000000000 Pb
0.6000000000000001 0.6000000000000001 0.2000000000000001 Pb
0.6000000000000001 0.6000000000000001 0.4000000000000001 Pb
0.6000000000000001 0.6000000000000001 0.6000000000000001 Pb
0.6000000000000001 0.6000000000000001 0.8000000000000003 Pb
0.6000000000000002 0.8000000000000002 0.0000000000000000 Pb
0.6000000000000003 0.8000000000000000 0.2000000000000000 Pb
0.6000000000000003 0.8000000000000000 0.3999999999999999 Pb
0.6000000000000001 0.8000000000000003 0.6000000000000001 Pb
0.6000000000000003 0.8000000000000000 0.8000000000000000 Pb
0.8000000000000000 0.0000000000000000 0.0000000000000000 Pb
0.8000000000000000 0.0000000000000000 0.2000000000000000 Pb
0.8000000000000000 0.0000000000000001 0.4000000000000000 Pb
0.8000000000000002 0.0000000000000000 0.6000000000000002 Pb
0.8000000000000000 0.0000000000000000 0.8000000000000002 Pb
0.8000000000000000 0.2000000000000000 0.0000000000000000 Pb
0.8000000000000000 0.2000000000000000 0.2000000000000000 Pb
0.8000000000000000 0.2000000000000000 0.3999999999999999 Pb
0.8000000000000000 0.1999999999999999 0.6000000000000003 Pb
0.8000000000000000 0.2000000000000000 0.8000000000000000 Pb
0.8000000000000000 0.4000000000000000 0.0000000000000001 Pb
0.8000000000000000 0.4000000000000000 0.2000000000000001 Pb
0.7999999999999999 0.4000000000000000 0.4000000000000000 Pb
0.8000000000000000 0.3999999999999999 0.6000000000000002 Pb
0.8000000000000000 0.3999999999999999 0.7999999999999999 Pb
0.8000000000000002 0.6000000000000002 0.0000000000000000 Pb
0.8000000000000000 0.6000000000000003 0.2000000000000000 Pb
0.8000000000000000 0.6000000000000003 0.3999999999999999 Pb
0.8000000000000003 0.6000000000000001 0.6000000000000001 Pb
0.8000000000000000 0.6000000000000003 0.8000000000000000 Pb
0.8000000000000000 0.8000000000000000 0.0000000000000000 Pb
0.8000000000000000 0.8000000000000000 0.2000000000000000 Pb
0.8000000000000000 0.8000000000000000 0.3999999999999999 Pb
0.8000000000000000 0.8000000000000000 0.6000000000000003 Pb
0.8000000000000000 0.8000000000000000 0.8000000000000000 Pb
0.1000000000000000 0.1000000000000000 0.1000000000000000 Te
0.1000000000000000 0.1000000000000000 0.3000000000000000 Te
0.1000000000000000 0.1000000000000000 0.5000000000000000 Te
0.1000000000000000 0.1000000000000000 0.7000000000000001 Te
0.1000000000000000 0.1000000000000000 0.9000000000000000 Te
0.1000000000000000 0.3000000000000000 0.1000000000000000 Te
0.1000000000000000 0.3000000000000000 0.3000000000000000 Te
0.1000000000000000 0.3000000000000000 0.4999999999999999 Te
0.1000000000000000 0.3000000000000002 0.7000000000000001 Te
0.1000000000000001 0.3000000000000000 0.9000000000000000 Te
0.1000000000000000 0.5000000000000000 0.1000000000000000 Te
0.1000000000000000 0.5000000000000000 0.3000000000000001 Te
0.1000000000000000 0.5000000000000000 0.5000000000000000 Te
0.1000000000000000 0.4999999999999999 0.7000000000000000 Te
0.1000000000000000 0.4999999999999999 0.8999999999999999 Te
0.1000000000000000 0.7000000000000001 0.1000000000000000 Te
0.1000000000000000 0.7000000000000001 0.3000000000000002 Te
0.1000000000000000 0.7000000000000000 0.4999999999999999 Te
0.1000000000000000 0.7000000000000001 0.7000000000000001 Te
0.1000000000000001 0.7000000000000000 0.8999999999999998 Te
0.1000000000000000 0.9000000000000000 0.1000000000000000 Te
0.1000000000000001 0.8999999999999999 0.3000000000000000 Te
0.1000000000000000 0.8999999999999999 0.5000000000000000 Te
0.1000000000000001 0.8999999999999999 0.7000000000000000 Te
0.1000000000000001 0.8999999999999999 0.8999999999999999 Te
0.3000000000000000 0.1000000000000000 0.1000000000000000 Te
0.3000000000000000 0.1000000000000000 0.3000000000000000 Te
0.3000000000000000 0.1000000000000000 0.4999999999999999 Te
0.3000000000000002 0.1000000000000000 0.7000000000000001 Te
0.3000000000000000 0.1000000000000001 0.9000000000000000 Te
0.3000000000000000 0.3000000000000000 0.1000000000000000 Te
0.3000000000000000 0.3000000000000000 0.3000000000000000 Te
0.3000000000000000 0.3000000000000000 0.5000000000000000 Te
0.3000000000000000 0.3000000000000000 0.7000000000000002 Te
0.3000000000000000 0.3000000000000000 0.8999999999999999 Te
0.3000000000000000 0.5000000000000000 0.1000000000000000 Te
0.3000000000000000 0.5000000000000000 0.3000000000000000 Te
0.3000000000000000 0.5000000000000000 0.5000000000000000 Te
0.3000000000000002 0.4999999999999999 0.7000000000000001 Te
0.3000000000000000 0.5000000000000000 0.8999999999999998 Te
0.3000000000000002 0.7000000000000001 0.1000000000000000 Te
0.3000000000000000 0.7000000000000002 0.3000000000000000 Te
0.3000000000000002 0.7000000000000001 0.4999999999999999 Te
0.3000000000000002 0.7000000000000001 0.7000000000000001 Te
0.3000000000000002 0.7000000000000001 0.8999999999999998 Te
0.3000000000000000 0.8999999999999999 0.1000000000000001 Te
0.3000000000000000 0.8999999999999999 0.3000000000000000 Te
0.3000000000000000 0.8999999999999999 0.5000000000000001 Te
0.3000000000000002 0.8999999999999998 0.7000000000000001 Te
0.3000000000000000 0.8999999999999999 0.9000000000000000 Te
0.5000000000000000 0.1000000000000000 0.1000000000000000 Te
0.5000000000000000 0.1000000000000000 0.3000000000000001 Te
0.5000000000000000 0.1000000000000000 0.5000000000000000 Te
0.4999999999999999 0.1000000000000000 0.7000000000000000 Te
0.4999999999999999 0.1000000000000000 0.8999999999999999 Te
0.5000000000000000 0.3000000000000000 0.1000000000000000 Te
0.5000000000000000 0.3000000000000000 0.3000000000000000 Te
0.5000000000000000 0.3000000000000000 0.5000000000000000 Te
0.4999999999999999 0.3000000000000002 0.7000000000000001 Te
0.5000000000000000 0.3000000000000000 0.8999999999999998 Te
0.5000000000000000 0.5000000000000000 0.1000000000000000 Te
0.5000000000000000 0.5000000000000000 0.3000000000000000 Te
0.5000000000000000 0.5000000000000000 0.5000000000000000 Te
0.5000000000000000 0.5000000000000000 0.7000000000000000 Te
0.5000000000000000 0.5000000000000000 0.8999999999999999 Te
0.4999999999999999 0.7000000000000000 0.1000000000000000 Te
0.4999999999999999 0.7000000000000001 0.3000000000000002 Te
0.5000000000000000 0.7000000000000000 0.5000000000000001 Te
0.4999999999999999 0.7000000000000001 0.7000000000000001 Te
0.5000000000000000 0.7000000000000000 0.9000000000000000 Te
0.4999999999999999 0.8999999999999999 0.1000000000000001 Te
0.5000000000000000 0.8999999999999999 0.3000000000000000 Te
0.5000000000000000 0.8999999999999999 0.5000000000000000 Te
0.5000000000000000 0.8999999999999999 0.7000000000000000 Te
0.5000000000000000 0.8999999999999999 0.8999999999999999 Te
0.7000000000000001 0.1000000000000000 0.1000000000000000 Te
0.7000000000000001 0.1000000000000000 0.3000000000000002 Te
0.7000000000000000 0.1000000000000000 0.4999999999999999 Te
0.7000000000000001 0.1000000000000000 0.7000000000000001 Te
0.7000000000000000 0.1000000000000001 0.8999999999999998 Te
0.7000000000000001 0.3000000000000002 0.1000000000000000 Te
0.7000000000000002 0.3000000000000000 0.3000000000000000 Te
0.7000000000000001 0.3000000000000002 0.4999999999999999 Te
0.7000000000000001 0.3000000000000002 0.7000000000000001 Te
0.7000000000000001 0.3000000000000002 0.8999999999999998 Te
0.7000000000000000 0.4999999999999999 0.1000000000000000 Te
0.7000000000000001 0.4999999999999999 0.3000000000000002 Te
0.7000000000000000 0.5000000000000000 0.5000000000000001 Te
0.7000000000000001 0.4999999999999999 0.7000000000000001 Te
0.7000000000000000 0.5000000000000000 0.9000000000000000 Te
0.7000000000000001 0.7000000000000001 0.1000000000000000 Te
0.7000000000000001 0.7000000000000001 0.3000000000000002 Te
0.7000000000000001 0.7000000000000001 0.4999999999999999 Te
0.7000000000000001 0.7000000000000001 0.7000000000000001 Te
0.7000000000000001 0.7000000000000001 0.8999999999999998 Te
0.7000000000000000 0.8999999999999999 0.1000000000000001 Te
0.7000000000000001 0.8999999999999998 0.3000000000000002 Te
0.7000000000000000 0.8999999999999999 0.4999999999999999 Te
0.7000000000000001 0.8999999999999998 0.7000000000000001 Te
0.7000000000000000 0.8999999999999999 0.8999999999999998 Te
0.9000000000000000 0.1000000000000000 0.1000000000000000 Te
0.8999999999999999 0.1000000000000001 0.3000000000000000 Te
0.8999999999999999 0.1000000000000000 0.5000000000000000 Te
0.8999999999999999 0.1000000000000001 0.7000000000000000 Te
0.8999999999999999 0.1000000000000001 0.8999999999999999 Te
0.8999999999999999 0.3000000000000000 0.1000000000000001 Te
0.8999999999999999 0.3000000000000000 0.3000000000000000 Te
0.8999999999999999 0.3000000000000000 0.5000000000000001 Te
0.8999999999999998 0.3000000000000002 0.7000000000000001 Te
0.8999999999999999 0.3000000000000000 0.9000000000000000 Te
0.8999999999999999 0.4999999999999999 0.1000000000000001 Te
0.8999999999999999 0.5000000000000000 0.3000000000000000 Te
0.8999999999999999 0.5000000000000000 0.5000000000000000 Te
0.8999999999999999 0.5000000000000000 0.7000000000000000 Te
0.8999999999999999 0.5000000000000000 0.8999999999999999 Te
0.8999999999999999 0.7000000000000000 0.1000000000000001 Te
0.8999999999999998 0.7000000000000001 0.3000000000000002 Te
0.8999999999999999 0.7000000000000000 0.4999999999999999 Te
0.8999999999999998 0.7000000000000001 0.7000000000000001 Te
0.8999999999999999 0.7000000000000000 0.8999999999999998 Te
0.8999999999999999 0.8999999999999999 0.1000000000000001 Te
0.8999999999999999 0.8999999999999999 0.3000000000000000 Te
0.8999999999999999 0.8999999999999999 0.5000000000000000 Te
0.8999999999999999 0.8999999999999999 0.7000000000000000 Te
0.8999999999999999 0.8999999999999999 0.8999999999999999 Te

