Sr64 Ti64 O192
1.0
15.6329136064995993 0.0000000000000000 0.0000000000000000
0.0000000000000000 15.6329136064995993 0.0000000000000000
0.0000000000000000 0.0000000000000000 15.6329136064995993
Sr Ti O
64 64 192
cartesian
0.0449231143324796 0.0408480142850562 15.5980803820201057 Sr
15.5807956100796989 0.0156220381799576 3.9522700452395427 Sr
0.0087932156233669 15.6202543734176000 7.7481748643729862 Sr
0.0173053083677550 15.5770441159125532 11.7631446162565805 Sr
15.6213734088032776 3.8760283645878584 15.5718400324111030 Sr
15.5762009281383094 3.9430231126346573 3.8864798338827176 Sr
15.5695207338184147 3.9079685676772913 7.7867705070923625 Sr
15.6055764367873238 3.9126407192220354 11.7889752554699836 Sr
15.6215576220950183 7.7859936522900055 0.0619922418678643 Sr
0.0658761697902818 7.8058091156691143 3.8870870439829188 Sr
0.0057253062555130 7.7473501575414891 7.8068916379492466 Sr
15.5852634261926699 7.7663769075419484 11.7136641176956591 Sr
15.6314578812257388 11.7636296590178411 0.0581481758563386 Sr
0.0538378388845555 11.7603548514319076 3.8812253755218062 Sr
15.5803970716753337 11.7324159271515480 7.8620884753989735 Sr
0.0369216455293599 11.7094298660363059 11.7821662167684540 Sr
3.9437688499029533 0.0458140048926751 0.0392167501444077 Sr
3.9430597012962596 0.0507207707175288 3.8748490070674211 Sr
3.9394035916769861 15.5727641175619347 7.8340677801038483 Sr
3.9128622091135403 15.5799385165791122 11.6791641363890566 Sr
3.9338587864392340 3.9169394206237005 0.0645538652775468 Sr
3.9043850440303767 3.9128460436987935 3.9779701106954262 Sr
3.9618198319824178 3.8805412216753128 7.8519726962932559 Sr
3.8413475566212933 3.8876947475126840 11.7269920686338978 Sr
3.9554373306494135 7.7854798716996001 15.5915403454232369 Sr
3.8677044727685441 7.8039047556591541 3.8525484475002130 Sr
3.8878938009721771 7.7545161808701444 7.8419492200735412 Sr
3.8542389752885038 7.7873244887957211 11.6909739293364474 Sr
3.8968611995607021 11.7933815433511811 15.6257303066202926 Sr
3.9753969744975328 11.7314664810781561 3.8897244260708157 Sr
3.9564806522788629 11.7432169159968609 7.7692519730974503 Sr
3.9565117144307296 11.6778055373045699 11.7054233650610033 Sr
7.8167702594997044 0.0545976488034297 0.0438063749963033 Sr
7.8070045412120823 0.0061548774915735 3.8391431483110838 Sr
7.7465965115571818 15.6288706644593347 7.8146695527688221 Sr
7.7996951138168695 15.6104545373594590 11.7888306332442454 Sr
7.8338600920330324 3.9110949320550601 15.5651721233240714 Sr
7.7619008772592881 3.8829177061760007 3.9440476650904022 Sr
7.8606571281018045 3.9316645422865291 7.7674968339497115 Sr
7.8119111535759647 3.8959710265645646 11.7934536120517830 Sr
7.8089856940512670 7.8859873136891165 0.0031129801463177 Sr
7.8015920424033460 7.8844301450263607 3.9005691789029626 Sr
7.8026304507967019 7.8757526431244660 7.7819193547134553 Sr
7.8797392746868962 7.8177211762860059 11.7545805250709794 Sr
7.7572566786197950 11.7620298608115039 0.0008496568446896 Sr
7.7890841177916492 11.6876513997570761 3.8555099668101298 Sr
7.8813454812734713 11.7127148222110709 7.8398270707541791 Sr
7.8088003064553728 11.7297191129890859 11.6552875260523283 Sr
11.7624076352308808 15.5767253173829907 15.6150280141367119 Sr
11.7571169046686244 15.5854802154889018 3.9482066240178857 Sr
11.6631819400577790 15.6272640502015356 7.8494026820587584 Sr
11.7478386912128592 15.5786573288302588 11.7623703797297505 Sr
11.7274812921334384 3.9628048843910242 15.5891690134060479 Sr
11.7214881878948862 3.9222050187547937 3.9767443359470347 Sr
11.7410988099019757 3.8426102647861002 7.8344805012003613 Sr
11.7639766924412861 3.8982983054548073 11.6676100597162549 Sr
11.7572463292985017 7.7598180740715907 0.0251361797681233 Sr
11.6936268826442706 7.8394651415948449 3.9665893216556074 Sr
11.7023397983791497 7.7505221526349048 7.8237578070739771 Sr
11.7337329737141722 7.7532285014765980 11.6960439804961105 Sr
11.7403281380093780 11.7783576778561034 15.5907880289130052 Sr
11.7892956642835056 11.7153716808062942 3.9335018423168600 Sr
11.6649458557682113 11.7103469043472899 7.7829064931719651 Sr
11.7149169197562681 11.7879287764867762 11.7530547529076355 Sr
2.0123585960684700 1.9155253660702487 1.9584144629555726 Ti
1.9420031556405701 2.0184969613577470 5.8376812413757291 Ti
1.9851867632663180 2.0021802509441313 9.8108717569992496 Ti
1.9258760424276993 1.8950865444833118 13.7036658931617996 Ti
1.9517066218797683 5.8893956020146279 1.8895980107703008 Ti
1.9269452153106892 5.9235528150018162 5.8419672225729649 Ti
2.0033915086087215 5.8963898486182886 9.8067998870680224 Ti
1.9130107867387229 5.8056812627863046 13.6788434560312311 Ti
1.9305336866904483 9.7715912265056168 2.0200150240236061 Ti
1.9658941819541758 9.7225314668313221 5.8128104421075300 Ti
1.9690806234797467 9.7575332810987749 9.7034440797138810 Ti
1.9800395228341345 9.7992548368460000 13.7371527724701004 Ti
1.9213114745239448 13.6892259810841619 2.0150671964199818 Ti
1.9996860577520736 13.6912771495995571 5.9139905623383058 Ti
1.9048720370388814 13.6813055657663565 9.7208826908633252 Ti
1.9976515212768420 13.6782735386521779 13.6239885929706563 Ti
5.8023163252449095 1.9892011275845121 1.9460053404666169 Ti
5.8008333534772101 1.9865591350727108 5.8543464450347651 Ti
5.8699966958694629 1.9929845362764869 9.7128604168650465 Ti
5.8072841778388309 1.9766958707608748 13.6419396978333189 Ti
5.9021218814677816 5.8179020730071755 1.9174720351588641 Ti
5.8348585393054915 5.8230916212982340 5.9133718759318912 Ti
5.8528406093546295 5.8259808403135720 9.8296263542238513 Ti
5.8041004170241237 5.8828601749541320 13.7117672241820081 Ti
5.9311004296914014 9.7659442988670726 1.9664005668471560 Ti
5.8994267726165761 9.7947212509887009 5.9165784752109083 Ti
5.8508694366523395 9.7015803189620922 9.7676296036677943 Ti
5.9144867790214208 9.7347153107657078 13.7087218739441905 Ti
5.8181693498932772 13.6621780766235599 2.0058099954174025 Ti
5.8967087474333217 13.6206431921929028 5.8439898666705101 Ti
5.8754602971395888 13.7412130870586306 9.7994233603500494 Ti
5.8419124402571203 13.6612482364228356 13.7434102788490637 Ti
9.7023702706441242 1.9426125398249909 1.9649017749493638 Ti
9.7283204028761343 1.9089014928958594 5.8296210844062299 Ti
9.7154290818439382 1.9969900137811456 9.7659848208623483 Ti
9.7078362952885477 1.9259147702591664 13.6657936980343706 Ti
9.7010453722809178 5.8564428860848885 1.9485124267749219 Ti
9.7869136688768101 5.9116233744531748 5.8153923860770060 Ti
9.7149597637895955 5.8365393692460010 9.8043583258295932 Ti
9.7242534626604726 5.9071911880671744 13.7060627460088877 Ti
9.7918857025403643 9.7216602428231376 1.9994288900842290 Ti
9.8165000392465078 9.7222255732843870 5.8410530968079062 Ti
9.7750514470297496 9.8221128514007798 9.7234184473580090 Ti
9.7658991741891317 9.8049516647154533 13.7395953280725038 Ti
9.7978916487001069 13.7176805627489138 2.0055130140488480 Ti
9.7020418639133030 13.6853371821192553 5.8496534562970552 Ti
9.7176055792149896 13.6558859768900529 9.8101896682435381 Ti
9.8145863847435173 13.7332218122724417 13.6797202340904338 Ti
13.6164164394321769 1.9793414815160204 1.9734002016818457 Ti
13.6823189851017641 1.9497912579776566 5.9321202831525426 Ti
13.7043476272649176 1.9360811181517059 9.8331976461881379 Ti
13.6197485377516454 1.9548123163292033 13.7163827481514531 Ti
13.6250946941656963 5.9067334434891343 1.9608415473259546 Ti
13.6548373409012989 5.7999345169243153 5.8415808512155296 Ti
13.6159158795094566 5.8846164175937217 9.7917733457687550 Ti
13.7478167962406008 5.8735506128045714 13.6821130599842125 Ti
13.7077943732059673 9.7315517687089201 2.0044807684046932 Ti
13.6708299653792356 9.7171823341753232 5.9069087100628010 Ti
13.6880915653669231 9.7797545376237114 9.8393410446308796 Ti
13.6857019805695401 9.8372177080404128 13.6585368464006240 Ti
13.6754987095543221 13.6770172479236223 2.0240136236909305 Ti
13.6166125027369294 13.6948631516246557 5.8901768469558453 Ti
13.6756865215505439 13.7388651166831632 9.8063819006566586 Ti
13.6449103970460648 13.6176347052865445 13.6820265589572720 Ti
2.0088421027015917 0.0407025922277580 1.9383612410666335 O
1.9323800318515312 0.0588765039590582 5.8933455568310400 O
2.0121312532761828 0.0213544313356086 9.8034040649270739 O
1.9027092859792831 15.5940554001877629 13.6514575964342519 O
1.9148689706494144 3.9088857812990239 1.8961540441406943 O
2.0238236893288488 3.9138037258580263 5.8592599135984367 O
1.9329988956910420 3.9688332108336706 9.7426210310676602 O
1.9665674636835266 3.9451981985468105 13.7369212635326843 O
1.9736316815126564 7.7497049322332439 1.9620675436886603 O
1.9026513549756938 7.8344661882453508 5.9062429162228369 O
1.9781849303750223 7.7847283274395771 9.8281375203810750 O
1.9847951561152439 7.7592407459222121 13.7049719440736801 O
1.9818945903672334 11.7498635828008595 2.0132267988029953 O
1.8974908719672055 11.7533903864746954 5.8328500410057851 O
2.0144192706238866 11.7271923975477002 9.8060253767113057 O
1.9183840514622843 11.6829126417051281 13.6354587850910036 O
5.8326102074649944 15.5873676774673360 1.9100511432948877 O
5.8886510806798489 15.5831864930396193 5.8206883330342958 O
5.8691315487166937 15.5697678297468869 9.7411342738309088 O
5.8347456740795494 0.0610746878972101 13.6990056434238703 O
5.9174543404745874 3.8967390791660765 1.9125126167085713 O
5.8555459613403560 3.9642491971118643 5.9037609092932106 O
5.9115123530337952 3.9568216129921780 9.7815726146397193 O
5.8074527169142236 3.9484005143424477 13.6622675628658943 O
5.9139755848764501 7.8041545717933340 1.9084776997893085 O
5.9018678017269801 7.7802191024175915 5.8173471842315978 O
5.9296469517032815 7.7987212093888356 9.7780257529036465 O
5.8533066344170992 7.8795825908277237 13.6499292441946380 O
5.8434061397757819 11.6574067438576279 1.9579896446633569 O
5.7988003885685631 11.7020854162513768 5.8810945786221280 O
5.8842751789265089 11.6963196817175223 9.7104514632741932 O
5.9077399580461956 11.7779281366512283 13.6808658808415107 O
9.8157546455470293 15.5959501891606873 1.9927424847609296 O
9.7088832357453150 0.0312804189278441 5.8515650966138741 O
9.8102679523323744 0.0277471505486934 9.8211105720705625 O
9.7651604819504101 15.5632504291077804 13.6745841991497219 O
9.7547155903599414 3.9436038566163010 1.8958288420979323 O
9.7074792536978425 3.9378288598760975 5.8557665924560167 O
9.8284821555903452 3.9303455063551986 9.7380574344790869 O
9.7999086803510487 3.8915573832993440 13.6174693323302485 O
9.7071100234364636 7.7909727801590725 1.9391720287774019 O
9.7372050889838597 7.7612706627601558 5.8351175109069402 O
9.7269455838477992 7.8405137424756752 9.7213969622699068 O
9.8363235872286641 7.8060296796474677 13.7004297755481890 O
9.8274123799290560 11.7191964907531982 1.9945979260222251 O
9.7553140017387587 11.6581620248029392 5.8778954283298122 O
9.7038187872751678 11.7037281263642825 9.7727941581996856 O
9.7797266934301756 11.6646302933589769 13.7135784360795707 O
13.6125777132810573 0.0049616446346582 1.9762517150674968 O
13.6536690737927700 0.0607681529146966 5.8863363101586330 O
13.7147307361536228 0.0398619077543766 9.7256269521633545 O
13.6641569671024072 0.0630151023176678 13.6520656092454544 O
13.6473682889140591 3.9288673143215784 1.8950708253915327 O
13.6999862732924491 3.9348149594330453 5.8011521490562084 O
13.6146371752809223 3.8804911355033926 9.7742928661503505 O
13.6409998117495537 3.8702046919829143 13.7238037188494992 O
13.6421049087782364 7.8724087865812011 1.9746784770672607 O
13.6211086942536586 7.8276193272649053 5.9003844198480593 O
13.7043851218612325 7.8323020472628606 9.7073705343644257 O
13.6693389770652995 7.8808302655856721 13.7046171832286525 O
13.7394951950494022 11.7159598254401089 1.9203519599594605 O
13.7211016779733495 11.6785836218809553 5.8309553151239308 O
13.6919101959578722 11.6812351431736907 9.8238645244625360 O
13.6788393841480111 11.6881097629257980 13.6191149399698013 O
1.9533609401533056 1.9717681920813233 0.0677330730932676 O
1.9787713218961620 1.8994425487172384 3.9443260031663225 O
1.9408623710957573 1.9163876335399019 7.7590016456833117 O
1.8994508394442859 1.9640640367774187 11.7672635760061048 O
1.9634575982121629 5.9187617061841760 0.0403681267516320 O
1.9218045891096220 5.9240045933232324 3.9155692375174764 O
1.9290116084401630 5.8377692023960668 7.7559092362747171 O
1.8971312472763475 5.8813859500937582 11.7606058662875892 O
2.0022744262976935 9.7296529931475799 0.0301049674305998 O
1.9758515436862698 9.7358328510786052 3.9649800417075527 O
1.8996855936901678 9.7306284337408986 7.8349532300088294 O
1.9453258773239746 9.8370522133306313 11.7447604180609986 O
2.0132836904490583 13.6612823142917232 0.0330472843844646 O
1.9143077416076613 13.7360821809753215 3.9023863591000389 O
1.9972805780520597 13.6248163073892190 7.8275242769526709 O
1.9171951584270095 13.7078224459651459 11.7765951985403099 O
5.8605445484093179 2.0157884235411099 0.0330614163720783 O
5.8621046645900226 1.9185866230958639 3.9685420369586515 O
5.8385979624578574 1.9717470887865323 7.8799018450886820 O
5.8570101467735478 1.8881885190512213 11.7476061429207483 O
5.8121073153269744 5.8610290851470461 15.5841828092429733 O
5.7957867367740938 5.8808669267541465 3.8969516044545665 O
5.9021265714686564 5.9127794530154647 7.8442661526107047 O
5.8732555751362927 5.9267582745530341 11.7498154299583835 O
5.9046868239445702 9.7901608389563339 15.5807292671460154 O
5.8090359713461295 9.8102688199010597 3.9301939769493126 O
5.9072247304635530 9.7169014621358691 7.8141819728710757 O
5.8867835991011672 9.7742133055236913 11.6591919126827257 O
5.9152769431896646 13.6391513103141566 15.6099792632037442 O
5.8880039289857047 13.7247754123816943 3.8621013691146473 O
5.8476488286513124 13.6361622505481730 7.8699933889980462 O
5.8875553305238588 13.7329792147584655 11.6882315818526816 O
9.7476524585927802 1.9686717597607644 0.0645199019762915 O
9.8258825681713002 1.9953673904524734 3.8964468388960261 O
9.7578199507136194 1.9112622063612872 7.8703188233572714 O
9.8381001743564109 1.9385590220383422 11.7147934116759007 O
9.8137499960809222 5.8303178982861512 15.5880806613333522 O
9.7907082401856158 5.8466178113653022 3.9733991210244288 O
9.8282882614174145 5.9001476900144736 7.8046460642092592 O
9.7844614187944323 5.8524448686737305 11.7925754931706877 O
9.7284434838761751 9.7846042061103606 15.5787994560096532 O
9.8249974548761330 9.8083185552049237 3.9308753403702319 O
9.8185777708931514 9.8197072199466149 7.8030038248803750 O
9.7422050823423234 9.8345654506768163 11.7243931646814818 O
9.7335217929087481 13.7141077532369042 15.5851571771292097 O
9.8175214350110682 13.7230200269808513 3.9354349024311270 O
9.7081552038280634 13.6473451079407031 7.8125973946935456 O
9.7772987558770215 13.7462258172575211 11.7071234174297558 O
13.7262480528557749 1.9664851455698531 0.0499558365726832 O
13.6255099972707452 1.9283140329866200 3.8708841880063374 O
13.6797293019996289 2.0223951311012871 7.8318467302067045 O
13.6535934665854857 1.9198219787790187 11.7802613161277634 O
13.7411169160114053 5.8932782525902683 15.6251991099766592 O
13.6135306970475600 5.8600723756843314 3.9334244676474008 O
13.6962838097631483 5.8131206239079987 7.8630560783918364 O
13.6262862611511011 5.8203402702961098 11.7441318947121331 O
13.7261807699861862 9.8019600640586706 0.0408623693598754 O
13.6089211561207986 9.7683276588657417 3.9047646406815950 O
13.7007238509960487 9.7228550317138538 7.7701696054436633 O
13.6153128625682545 9.7886889843387088 11.7014215500991767 O
13.6884454900717181 13.6174366052379536 15.6006404012500699 O
13.6525622254666548 13.7385643128523984 3.9335220025074591 O
13.6406751813417788 13.6441012225725036 7.7691009207576869 O
13.6703938380936023 13.6280873236679891 11.7721997412894890 O
15.6300490791204645 1.8889206875103091 1.9794440311754382 O
0.0699234965148997 1.9569819913650279 5.8639175349683992 O
15.5781122806363346 1.9654218463595583 9.8126299131756483 O
0.0547488690792489 1.9950678584067754 13.6938113763835645 O
0.0636001153751060 5.8587667349056858 1.9831355463303473 O
15.5897191456791173 5.8610084223138008 5.8072748394736537 O
15.6193521292451933 5.8799884010716355 9.7042029987793086 O
0.0235897829448020 5.9139916935148564 13.7197370843155788 O
0.0250960327311604 9.8157349182081148 1.9068869840811906 O
0.0349276782686775 9.7099107590864282 5.8629686776988468 O
0.0481048036087185 9.7203183895127161 9.7627862368401068 O
15.5990359046697158 9.7736730536868777 13.7399768411258130 O
15.5635168012278999 13.6700981295309791 1.9570075053826761 O
0.0453028680002005 13.6845700933900183 5.9153930436644719 O
0.0015881935357521 13.7483997451217519 9.7778696609168225 O
15.5720294760926841 13.6826069111248430 13.7131305222861712 O
3.9409262842825310 1.9330998324545550 1.8958969800592524 O
3.8778375039950412 2.0142046845535697 5.8432238392710332 O
3.9450965955780126 1.9956578930458690 9.7279698548964042 O
3.8539770039778101 1.9946472906086234 13.6965153444122816 O
3.9105593928487870 5.7987321960826010 1.9832394936572937 O
3.8611039107536897 5.8772228080299174 5.9119194301056472 O
3.9259616743801087 5.9219011763976503 9.7383482278751341 O
3.9592281918584855 5.9056303902021003 13.6994195130235372 O
3.8548630659316432 9.8153699501287974 1.9473914500605303 O
3.8554328340043540 9.8165061670190603 5.8607336140111839 O
3.8513095787608536 9.7659895945807147 9.7300832492352161 O
3.9394121890498077 9.8331602316793063 13.6756119320577412 O
3.9745598640808035 13.6835416210167349 1.9759693714187121 O
3.9511392651248043 13.6889926468743255 5.9167002663661146 O
3.9247214435550490 13.6125125369267685 9.7858690626918392 O
3.8537933177790227 13.6405244637687026 13.6570772863653129 O
7.8799301831815001 1.9350770021765398 1.9315594871555981 O
7.8268166553920393 1.9885397185799045 5.9224055460051899 O
7.7857902524757465 1.9542341778796208 9.7076460625118113 O
7.7734028590672315 1.9637690277705164 13.6244565845721723 O
7.7480668349941748 5.8554962122714489 1.9673784076749516 O
7.7721021669996126 5.9070127603135010 5.8929570310361914 O
7.8185670396051172 5.8610165845771149 9.7006153854232942 O
7.7793826807620521 5.8209607184666892 13.6362194911639545 O
7.7842298452890022 9.7962122398405391 1.8975107538471350 O
7.8449245684476008 9.7969657755544404 5.8040939768525543 O
7.8800918071191388 9.7416143032657487 9.7740489001979558 O
7.7686733764831342 9.7870833966555004 13.7272151574347063 O
7.7520713706266955 13.7057619077766368 1.9488663872667533 O
7.7857268846305274 13.6162693903101140 5.8691005073346556 O
7.7563790597529580 13.6492043278795148 9.7502044602737694 O
7.7608280464829384 13.6645937699427051 13.6387539148839423 O
11.7137914526971674 2.0011550732861467 2.0047943989218489 O
11.7733188044898860 2.0042538920219952 5.8577836163788906 O
11.6878904407346518 2.0135238434746010 9.7746501817531257 O
11.7314090410206102 2.0182200284270806 13.6515004516169611 O
11.6945925366069829 5.9118092602325207 1.9934522368984673 O
11.7731424042624653 5.9111520862951199 5.8753631290408359 O
11.7473418091978701 5.8846678232999068 9.8329269403793429 O
11.7046092761767877 5.8409149867110948 13.6152556068456843 O
11.7499564052270777 9.7256010028181290 2.0014329647529205 O
11.7294301391055136 9.8004281137896871 5.7992075202890785 O
11.6933003765956194 9.7437401845121645 9.8270962168098670 O
11.6665855138847281 9.7421941331577582 13.7056169205708880 O
11.7454769160701176 13.6628785010211597 2.0190312982535916 O
11.7215697161133967 13.6088720759092858 5.8616626907401290 O
11.6903450950016268 13.6254648452639788 9.8001713675460369 O
11.7609090301254327 13.7384871324691851 13.6838203374529872 O
