Sr64 Ti64 O192
1.0
15.6329136064995993 0.0000000000000000 0.0000000000000000
0.0000000000000000 15.6329136064995993 0.0000000000000000
0.0000000000000000 0.0000000000000000 15.6329136064995993
Sr Ti O
64 64 192
cartesian
0.0064530909922463 15.6149471691568262 0.0059636185201591 Sr
15.6229161485710222 0.0084356158180433 3.9233575529803693 Sr
15.6285775825817499 15.6134913351161426 7.8144632459039496 Sr
15.6171525305638497 15.6322561173219619 11.7369797643759100 Sr
15.6201679911649318 3.9163782728045273 15.6198319823842180 Sr
0.0082195316307335 3.9229896335266328 3.8975258163057052 Sr
0.0166669066201889 3.8977461743060009 7.8199692289285601 Sr
0.0065820108586366 3.8898421480140728 11.7290006204068522 Sr
0.0045497130754519 7.8219631962803637 15.6142326068816999 Sr
0.0054891662265563 7.8135586165375654 3.9272407546596577 Sr
0.0072494846119910 7.8049825057514468 7.8017671650725013 Sr
0.0111377894284819 7.8212740302580039 11.7087872814065790 Sr
15.6155652816355879 11.7147514115161524 15.6323174740291222 Sr
15.6141864557872854 11.7295660001019506 3.9132753476467919 Sr
0.0088362849531474 11.7425865980181374 7.8176651871915848 Sr
0.0173654443490878 11.7341821215096260 11.7275574717473905 Sr
3.8912506478084801 0.0040711452394505 15.6231574980649643 Sr
3.8954136819241554 15.6246717531269397 3.8952725221883298 Sr
3.8942117906684328 0.0005427885259444 7.8022005766133002 Sr
3.9189622656978904 15.6179813815689670 11.7168230918836773 Sr
3.9171709839551605 3.9199982701563654 0.0134722090251936 Sr
3.9146345765688317 3.9115254682824978 3.8895712240772879 Sr
3.9131824846596586 3.9174586452214539 7.7994197945794648 Sr
3.9042399161731893 3.9275593838257215 11.7279109002963082 Sr
3.9150593018885553 7.8286087027893370 15.6185724022555696 Sr
3.9145970614045251 7.8153561309247701 3.9271553319899715 Sr
3.9246477428421920 7.8055381386932652 7.8198016497772240 Sr
3.9115472791825723 7.8355171856319208 11.7297534269697170 Sr
3.9274481385909681 11.7198367961080958 0.0026635771787340 Sr
3.9239890128392596 11.7327225029140436 3.9175560473287501 Sr
3.8932222114629926 11.7202182657485441 7.8289011076364607 Sr
3.8928241304693354 11.7277704140342891 11.7123082135356285 Sr
7.8017403127832194 0.0092223296330864 0.0099183438378505 Sr
7.8160914877183636 0.0033406441064736 3.8885127570369997 Sr
7.8105325062852682 0.0144195545109966 7.8039276710699346 Sr
7.8208272060256165 15.6238504604239541 11.7419698501643381 Sr
7.8303202091977910 3.9118962560674357 0.0139410479989669 Sr
7.8166998829636594 3.8897512007570283 3.9158791506301314 Sr
7.8171154336117388 3.9278275949053070 7.8125277029961033 Sr
7.8157628537889279 3.9279865802885845 11.7277072588185707 Sr
7.8114838285077450 7.7972110678376847 15.6307065290968126 Sr
7.8178339635955227 7.8179244053149208 3.8883299199350669 Sr
7.8012048697783865 7.8288510304743282 7.8201664739751262 Sr
7.8045639578059971 7.8004794811980442 11.7228726356196304 Sr
7.7997162775578293 11.7163790140602728 0.0071247451681354 Sr
7.7985881871725047 11.7157013829840277 3.9081692094039711 Sr
7.8060532927091186 11.7393396826022212 7.8076810838511639 Sr
7.8316133199328934 11.7117064684027525 11.7233315425730975 Sr
11.7291644984478705 0.0194886333293180 0.0003593049411693 Sr
11.7161836971953637 15.6196772136498119 3.8958784108757403 Sr
11.7254157739223288 15.6239844668884054 7.7985756194335503 Sr
11.7194098354172702 0.0081949360443077 11.7072205691694418 Sr
11.7410526157317321 3.9170442461819364 15.6255387338509877 Sr
11.7180501832310711 3.9250219032294016 3.9168280988084150 Sr
11.7271115852466750 3.8883791078875425 7.8168006293956838 Sr
11.7141046114458973 3.9047912938573521 11.7080648158031799 Sr
11.7355647113981956 7.7998331505639822 0.0023001106900741 Sr
11.7350168736263285 7.8026984832234243 3.9184247367929141 Sr
11.7160981068428178 7.8344502367124162 7.8180373410118120 Sr
11.7184417242572465 7.8093940083978683 11.7423242490284814 Sr
11.7413066654060287 11.7266423748888133 15.6219638788618305 Sr
11.7167290000938831 11.7309932525626266 3.8909974022385443 Sr
11.7238105631412353 11.7440511913464807 7.8213754991961730 Sr
11.7155949417589813 11.7184833430154676 11.7413856248085224 Sr
1.9372847230939616 1.9614334207932527 1.9461645027933092 Ti
1.9699157371901910 1.9580973099680545 5.8507475047854340 Ti
1.9480183972231129 1.9720652443943776 9.7769429121689289 Ti
1.9596560437033601 1.9415855490915228 13.6933706397950825 Ti
1.9387146475649810 5.8504690318806141 1.9494374410353585 Ti
1.9635547461887457 5.8665442601721960 5.8452188710893838 Ti
1.9413206748773770 5.8627898502263420 9.7859373850143090 Ti
1.9646722839303465 5.8617918931466413 13.6618222563341867 Ti
1.9704446016854464 9.7786213951224212 1.9623912299356012 Ti
1.9414790302190956 9.7627444974162731 5.8489598427145815 Ti
1.9671933463433418 9.7844308741837374 9.7645014116214632 Ti
1.9600888663625220 9.7807934248284472 13.6626809229656416 Ti
1.9406535149375894 13.6767026608693225 1.9687570692796337 Ti
1.9556363976002888 13.6954738999305761 5.8514044052063161 Ti
1.9493679257966567 13.6598416671191512 9.7663192959511580 Ti
1.9636244208498341 13.6669227177601833 13.6917801606238214 Ti
5.8820419017288463 1.9539350721151856 1.9506637631106756 Ti
5.8433724075465499 1.9583933497559964 5.8670138538889418 Ti
5.8697641755279477 1.9716299213278388 9.7767451264847249 Ti
5.8787799062454775 1.9654201618883154 13.6773886301308352 Ti
5.8805625610447532 5.8700455773829354 1.9570633168380018 Ti
5.8485216491159084 5.8765525346721201 5.8649994944505428 Ti
5.8736176099631949 5.8617774972824641 9.7540617684210691 Ti
5.8816704135903635 5.8668502837464622 13.6763262447039278 Ti
5.8565336793198499 9.7827587996461460 1.9688693372408295 Ti
5.8791862323611035 9.7635490026609091 5.8541582498477327 Ti
5.8554075673295705 9.7559287366897305 9.7588445683614271 Ti
5.8815493054231149 9.7716854023935156 13.6733349133250108 Ti
5.8776836963946444 13.6882209775497437 1.9628253901589967 Ti
5.8732810860311773 13.6955132241574251 5.8633415262633424 Ti
5.8636332477370496 13.6892419149847075 9.7875794794283948 Ti
5.8465345200643961 13.6881691087602082 13.6709055348994664 Ti
9.7741680545403202 1.9736352289544599 1.9516666125837954 Ti
9.7903988914890956 1.9517018855520754 5.8633602542800007 Ti
9.7523935741011254 1.9458984842366802 9.7720142785181459 Ti
9.7557336880141285 1.9599275524385920 13.6908848926595041 Ti
9.7618622717345716 5.8673538079974739 1.9368212600538905 Ti
9.7543738917764511 5.8577364122142894 5.8731331800507238 Ti
9.7573163673149956 5.8677856381560387 9.7845240670544165 Ti
9.7682955798116531 5.8714096333800914 13.6611185857298292 Ti
9.7743796571388906 9.7734292888285026 1.9346893618186047 Ti
9.7893258993240391 9.7756648879529440 5.8576196530804960 Ti
9.7566107564655624 9.7775583178940391 9.7830725612634648 Ti
9.7609497219543258 9.7592466726219946 13.6921856093323591 Ti
9.7564288973842270 13.6653017662093816 1.9498934725298376 Ti
9.7736372837441881 13.6686484634299426 5.8793000875163051 Ti
9.7898763576317975 13.6837255663100805 9.7723134922463686 Ti
9.7724301072533706 13.6957827781247801 13.6891969436634895 Ti
13.6831525771267319 1.9634362349901513 1.9712649902172368 Ti
13.6919254190438053 1.9493422095886119 5.8766581839176970 Ti
13.6660605011665570 1.9415660813213156 9.7616119299554285 Ti
13.6808378590691380 1.9725157559310555 13.6712345212183433 Ti
13.6811233472985148 5.8540855460995287 1.9360470949008488 Ti
13.6607201309868369 5.8675452017763501 5.8691302961862206 Ti
13.6909860777321146 5.8566860537311918 9.7853861477066193 Ti
13.6863156439894222 5.8438303096930619 13.6779043195833232 Ti
13.6900204040468143 9.7695579497949865 1.9375895853293614 Ti
13.6942958058547344 9.7682801490693674 5.8747769727570578 Ti
13.6777205038562411 9.7786388252804066 9.7888397268318119 Ti
13.6830854492661995 9.7534072260412792 13.6694701745031075 Ti
13.6672718251790286 13.6691896011389407 1.9673341306221730 Ti
13.6678241239593437 13.6952180585528183 5.8591849088056032 Ti
13.6643986068721457 13.6722948882457178 9.7828310304220896 Ti
13.6833232969435805 13.6767729288998048 13.6594234463630197 Ti
1.9707840691409246 15.6253778380299035 1.9621967550796633 O
1.9525709231860224 15.6145843506051261 5.8701947787294797 O
1.9602102318980819 0.0188111900124332 9.7675747505150436 O
1.9576938738842593 15.6310214414436306 13.6983852590538007 O
1.9399587069846504 3.8966194683999476 1.9460609614723001 O
1.9554715359837338 3.8918649675541075 5.8509235102385961 O
1.9376585987933908 3.9142111834980549 9.7802363795463467 O
1.9528613518845366 3.9121939317054757 13.6983622516136467 O
1.9709749247863744 7.8250363543426209 1.9476251877811217 O
1.9477218837126911 7.7983946980097070 5.8680783357289199 O
1.9696264599173927 7.8246110440990435 9.7802083363504710 O
1.9499055412821888 7.8081857893808317 13.6610828170048499 O
1.9656617377955299 11.7336411588856873 1.9404597042132543 O
1.9423650078125847 11.7374910145532887 5.8722404659607417 O
1.9354745260098736 11.7180863679210709 9.7675680265209373 O
1.9401653318624790 11.7188568607216776 13.6918936586039983 O
5.8426713096888410 0.0018585899855565 1.9572103088318986 O
5.8699823472212822 0.0184293659087934 5.8609309467299671 O
5.8764675317957362 15.6233722864709925 9.7601091886016214 O
5.8619181010879435 15.6292828217609880 13.6591363133365995 O
5.8780491969128033 3.8970759994186293 1.9594925662716949 O
5.8716099863528335 3.9031502255781363 5.8453623867908657 O
5.8644369077563541 3.9186051605044381 9.7875397034934579 O
5.8428196472265839 3.9039811449813562 13.6797021962732188 O
5.8820159021426219 7.8185021690380427 1.9511514727623629 O
5.8584823371471249 7.8314118813276403 5.8750486636513815 O
5.8538406123263469 7.8207330412206995 9.7529803828973041 O
5.8794226760869099 7.8190070153053162 13.6888873937223057 O
5.8703082919304110 11.7376348660407785 1.9671085867765434 O
5.8630398232415537 11.7404260020039768 5.8746609297947892 O
5.8719501946549322 11.7364257974215604 9.7836037573565147 O
5.8562847298018550 11.7273391124376616 13.6599245824090509 O
9.7890091179608856 0.0034412146662696 1.9471720111376030 O
9.7797348430262101 0.0093103639738418 5.8471985878402490 O
9.7706752515389983 0.0076337633730789 9.7520854748778465 O
9.7766530958574407 15.6240762330312641 13.6619201583823671 O
9.7660454873785110 3.8931943669251892 1.9665036115891215 O
9.7664127931254079 3.9030352748793646 5.8434815124261776 O
9.7672016006287201 3.8924522356970472 9.7823930051246322 O
9.7684614914563497 3.9080784303567890 13.6589115333729882 O
9.7774907471884180 7.8341219207945221 1.9477848424564297 O
9.7582199175721538 7.8047247423711452 5.8518636039139329 O
9.7517545592441248 7.8102247497886594 9.7679058747850878 O
9.7666052824489196 7.8328706742767187 13.6680822283536720 O
9.7543204099868568 11.7165159100372787 1.9624317012817118 O
9.7855745628961426 11.7228475298481669 5.8492461841172601 O
9.7726624230917576 11.7435336266975270 9.7769241891871879 O
9.7573749186554064 11.7306118281088221 13.6926102154742733 O
13.6666116839819605 0.0157936481737430 1.9526928926119185 O
13.6693491574449304 0.0149344901449376 5.8529802409686180 O
13.6764730824443497 0.0173400487809580 9.7802617691736327 O
13.6902292641118919 15.6183419712662861 13.6863509474514196 O
13.6589917345587857 3.9109617591491386 1.9545442253643752 O
13.6909039797223659 3.9176480299954006 5.8751780957581206 O
13.6609126827759777 3.9167745950743824 9.7679200191466080 O
13.6865359211437791 3.9232110467789898 13.6895542498411089 O
13.6675423134958667 7.8228916302360592 1.9388868938590227 O
13.6625236738099183 7.8243276693452941 5.8708953808611879 O
13.6860679509973320 7.8325929637547889 9.7798872572378013 O
13.6900890276275629 7.8273725119809230 13.6664142638090880 O
13.6905070728620935 11.7167405657591459 1.9399786697419743 O
13.6704414293581777 11.7066735812766964 5.8599497700052243 O
13.6790844061263499 11.7128158039342125 9.7544764057117597 O
13.6661164281587073 11.7110633178075805 13.6861196702823467 O
1.9369119048135859 1.9439611467822426 0.0009982515851083 O
1.9726108575423766 1.9565982339546455 3.9154189001586395 O
1.9537036782687620 1.9452471952035131 7.8343790710407948 O
1.9425015770376839 1.9503159522032691 11.7405193539383070 O
1.9626842427507427 5.8456088612155428 15.6260918555588582 O
1.9456111532097444 5.8690399052506779 3.9250463776176496 O
1.9442336737516228 5.8510786539272202 7.8297043935575248 O
1.9740205341904540 5.8630046124755104 11.7265016943883289 O
1.9577334364685379 9.7531947850277181 15.6236957897662467 O
1.9365974559351236 9.7657261527386918 3.9165765190507198 O
1.9468288616353031 9.7743448670975184 7.8346963698802021 O
1.9525950793318836 9.7686396860537315 11.7445336879572224 O
1.9398618631692361 13.6682699347980101 0.0092736785850386 O
1.9453422621094221 13.6773726416698711 3.8903114421777909 O
1.9365380067700633 13.6693093785289825 7.8174651620756368 O
1.9643395012543048 13.6769016373042103 11.7417685800107350 O
5.8744973020683275 1.9622264698583902 15.6192587770313498 O
5.8477119344634572 1.9677491778506495 3.9084043442448162 O
5.8765144230197537 1.9470684824667963 7.8286845321629634 O
5.8712331835763960 1.9362029116068897 11.7243066734957733 O
5.8644628463317492 5.8704236827686662 15.6147421809499320 O
5.8645732897626193 5.8530451461560666 3.9257948850736306 O
5.8769153792394766 5.8487408843107476 7.8180777413361682 O
5.8778783345878560 5.8501465443187373 11.7278311853125157 O
5.8609960226073365 9.7890516891331902 15.6253869205044129 O
5.8672705056361094 9.7584569184240166 3.9233599811595430 O
5.8758205968001969 9.7663511701770158 7.8022957061900318 O
5.8544959767732641 9.7722771465519997 11.7430023974404936 O
5.8534319300433006 13.6735035531212681 15.6158094004938715 O
5.8625504317218944 13.6867361703607191 3.8898718068016520 O
5.8772366407683290 13.6747357951866562 7.8037424534081588 O
5.8784641155389572 13.6890422444281299 11.7187538416383958 O
9.7759951196554891 1.9366403528700955 15.6248362549461106 O
9.7758374333450160 1.9481989615723876 3.8898633623561576 O
9.7621185075755665 1.9377355436753450 7.8086918245938177 O
9.7603430568588951 1.9371018488484137 11.7271283537971218 O
9.7873490520221225 5.8730312731523178 15.6308521931487263 O
9.7743999617737636 5.8449456324261639 3.8991352988940746 O
9.7540563871473438 5.8515788419050390 7.8130790987989842 O
9.7809631434182069 5.8552258733987870 11.7091495810572273 O
9.7889881706840534 9.7768437264668577 0.0046325940097802 O
9.7626721966506445 9.7784721011059972 3.9248169973153026 O
9.7773966511353905 9.7752913065235827 7.7982598450779914 O
9.7858925917743136 9.7641067552308165 11.7135738396558438 O
9.7793732063212868 13.6940287996100452 0.0095177096053758 O
9.7775448618987930 13.6607162387119612 3.9131644302941049 O
9.7684369661771022 13.6618166114144870 7.8268023617652753 O
9.7825614062922508 13.6639494529147285 11.7187094909408085 O
13.6649428106749156 1.9578592028343691 0.0139273017674928 O
13.6877259097625075 1.9540752442430414 3.8903310273097018 O
13.6914592303606071 1.9533293489536423 7.8319200773790705 O
13.6959127003738921 1.9472978279252098 11.7168959683506984 O
13.6779519325584840 5.8672084114631424 0.0193805493167946 O
13.6788620401541792 5.8456608064987519 3.8971960056391430 O
13.6827640270574609 5.8788635221340915 7.8059049792480497 O
13.6668341275685332 5.8519257552962056 11.7125064768958733 O
13.6740829914920639 9.7792555606333309 15.6155258546522759 O
13.6915070662753582 9.7611719680548745 3.9204829307675038 O
13.6912321023963912 9.7554655059262938 7.8206103533699558 O
13.6739533896428771 9.7635619217215854 11.7427790959222449 O
13.6851643490616599 13.6791119434368085 15.6139560271184052 O
13.6664115002652444 13.6633892391535365 3.9112394756300226 O
13.6779392428106874 13.6591766349232255 7.8202260190001196 O
13.6668269798758590 13.6675553979085205 11.7360971858275089 O
0.0069740807993174 1.9353837168294208 1.9548430126990737 O
15.6218661164893451 1.9531267554380956 5.8456999489197763 O
0.0020891036150758 1.9435447541900523 9.7537210057185746 O
15.6291679912091883 1.9407171449175624 13.6644296715404945 O
15.6133977361694427 5.8663439510312108 1.9523478444817812 O
15.6235486150307850 5.8800115904029822 5.8626647810514436 O
0.0161064665917443 5.8702468486938262 9.7794086861704717 O
0.0055461332401175 5.8495674732245018 13.6931533765550952 O
0.0075931647540705 9.7655261520840995 1.9363127031918532 O
0.0199163762185961 9.7711898684967196 5.8606236012357540 O
0.0164026606174839 9.7763696215403897 9.7607054701177614 O
0.0183272199663583 9.7630975399697668 13.6816734868904426 O
15.6133893634304712 13.6825214152503367 1.9518892115115400 O
15.6217415635035906 13.6659023991503084 5.8519093537733902 O
15.6140771182752829 13.6769923600536671 9.7640963382443289 O
15.6301131758359055 13.6758694538826138 13.6592143866542006 O
3.8912196673019945 1.9644251523209040 1.9520196278910289 O
3.9160958995363271 1.9666401383375138 5.8758037823905287 O
3.9029157157411118 1.9664213829012200 9.7854138015658876 O
3.9110410222068404 1.9489159430465215 13.6596926717521985 O
3.9101684891006663 5.8809249456192330 1.9469774941169846 O
3.9183157675123494 5.8613450186065714 5.8795835384894692 O
3.8907049859345562 5.8530622423785843 9.7731796090003495 O
3.9251854411807541 5.8585498472159596 13.6887026282602200 O
3.9216584067575466 9.7739015801048161 1.9685551919613200 O
3.9047984012131960 9.7630701069130907 5.8805626913266345 O
3.9033241469344482 9.7808460575398932 9.7541280249537419 O
3.9034098521043137 9.7646038559233510 13.6603284900735122 O
3.9031573560450004 13.6906935981177806 1.9693724013337992 O
3.8914244093036223 13.6699222129688245 5.8685732758767299 O
3.9088288872396726 13.6963761458954636 9.7610474742189695 O
3.9143905088541588 13.6609195243239423 13.6853061926771158 O
7.8330459677032698 1.9476373104616300 1.9632163716589632 O
7.8201086804243740 1.9626231164740804 5.8446151619180569 O
7.8217223469628152 1.9465976358006414 9.7528009365376285 O
7.8164630751367445 1.9535006633018908 13.6588088195930251 O
7.7982796962663050 5.8662058243208905 1.9615080021614986 O
7.8113408840117371 5.8630300475442594 5.8816649933239518 O
7.7974416968852163 5.8607541565799837 9.7645791287546473 O
7.8253048275212684 5.8621541595031177 13.6967347605972698 O
7.8154307331976982 9.7594129952370707 1.9375477884275851 O
7.8268515318217231 9.7747433768259775 5.8457733259463103 O
7.7981200844077270 9.7627622627689856 9.7722408248675290 O
7.7984502773321518 9.7754699899086095 13.6716046185426698 O
7.8147452055431916 13.6665061970004018 1.9384314888825949 O
7.8259166154341901 13.6660361887054620 5.8744921804429593 O
7.8271086708687312 13.6666468069383473 9.7823545544558836 O
7.8212643608675618 13.6598043659778678 13.6747899348748518 O
11.7183537624694321 1.9417533865305878 1.9685059730229217 O
11.7133596745940185 1.9404539523707520 5.8715691931604983 O
11.7187815840539358 1.9716220464866328 9.7629144643050445 O
11.7236077482821006 1.9346971143128109 13.6741286627958516 O
11.7342095442028942 5.8550300177924459 1.9701083580635363 O
11.7067972144775574 5.8697146048130291 5.8674094930543630 O
11.7423017256056905 5.8674326252968783 9.7625866528284870 O
11.7430700721643042 5.8620982206066241 13.6709294036373148 O
11.7097095761653751 9.7712760803737257 1.9673517765782556 O
11.7348309827607071 9.7533500607060173 5.8630513344101072 O
11.7133877400776534 9.7750057490523083 9.7546744533032719 O
11.7128283259831214 9.7544768514006588 13.6794260419898457 O
11.7234581194365663 13.6981247248746882 1.9591168300838595 O
11.7132047477293977 13.6822418363884069 5.8783534979339160 O
11.7382346545777381 13.6865861455556370 9.7580898544771610 O
11.7125912899257845 13.6945824796037936 13.6766472442271070 O
